    1C
    1UConcrete Curing Thermal Stress Analysis                           
    1UUSER                                                              
    1UDATE              18.june.2025                                    
    1UTIME              16:55:12                                        
    1UHOST                                                              
    1UPGM               CalculiX                                        
    1UVERSION           Version 2.12                             
    1UCOMPILETIME       Tue, Apr 04, 2017  8:36:16 PM                    
    1UDIR                                                               
    1UDBN                                                               
    1UMAT    1CONC                                                      
    2C                           486                                     1
 -1         1 1.10000E+00 1.10000E+00 0.00000E+00
 -1         2 1.10000E+00 1.20000E+00 0.00000E+00
 -1         3 1.10000E+00 1.30000E+00 0.00000E+00
 -1         4 1.10000E+00 1.40000E+00 0.00000E+00
 -1         5 1.10000E+00 1.50000E+00 0.00000E+00
 -1         6 1.10000E+00 1.60000E+00 0.00000E+00
 -1         7 1.10000E+00 1.70000E+00 0.00000E+00
 -1         8 1.10000E+00 1.80000E+00 0.00000E+00
 -1         9 1.10000E+00 1.90000E+00 0.00000E+00
 -1        10 1.20000E+00 1.10000E+00 0.00000E+00
 -1        11 1.20000E+00 1.20000E+00 0.00000E+00
 -1        12 1.20000E+00 1.30000E+00 0.00000E+00
 -1        13 1.20000E+00 1.40000E+00 0.00000E+00
 -1        14 1.20000E+00 1.50000E+00 0.00000E+00
 -1        15 1.20000E+00 1.60000E+00 0.00000E+00
 -1        16 1.20000E+00 1.70000E+00 0.00000E+00
 -1        17 1.20000E+00 1.80000E+00 0.00000E+00
 -1        18 1.20000E+00 1.90000E+00 0.00000E+00
 -1        19 1.30000E+00 1.10000E+00 0.00000E+00
 -1        20 1.30000E+00 1.20000E+00 0.00000E+00
 -1        21 1.30000E+00 1.30000E+00 0.00000E+00
 -1        22 1.30000E+00 1.40000E+00 0.00000E+00
 -1        23 1.30000E+00 1.50000E+00 0.00000E+00
 -1        24 1.30000E+00 1.60000E+00 0.00000E+00
 -1        25 1.30000E+00 1.70000E+00 0.00000E+00
 -1        26 1.30000E+00 1.80000E+00 0.00000E+00
 -1        27 1.30000E+00 1.90000E+00 0.00000E+00
 -1        28 1.40000E+00 1.10000E+00 0.00000E+00
 -1        29 1.40000E+00 1.20000E+00 0.00000E+00
 -1        30 1.40000E+00 1.30000E+00 0.00000E+00
 -1        31 1.40000E+00 1.40000E+00 0.00000E+00
 -1        32 1.40000E+00 1.50000E+00 0.00000E+00
 -1        33 1.40000E+00 1.60000E+00 0.00000E+00
 -1        34 1.40000E+00 1.70000E+00 0.00000E+00
 -1        35 1.40000E+00 1.80000E+00 0.00000E+00
 -1        36 1.40000E+00 1.90000E+00 0.00000E+00
 -1        37 1.50000E+00 1.10000E+00 0.00000E+00
 -1        38 1.50000E+00 1.20000E+00 0.00000E+00
 -1        39 1.50000E+00 1.30000E+00 0.00000E+00
 -1        40 1.50000E+00 1.40000E+00 0.00000E+00
 -1        41 1.50000E+00 1.50000E+00 0.00000E+00
 -1        42 1.50000E+00 1.60000E+00 0.00000E+00
 -1        43 1.50000E+00 1.70000E+00 0.00000E+00
 -1        44 1.50000E+00 1.80000E+00 0.00000E+00
 -1        45 1.50000E+00 1.90000E+00 0.00000E+00
 -1        46 1.60000E+00 1.10000E+00 0.00000E+00
 -1        47 1.60000E+00 1.20000E+00 0.00000E+00
 -1        48 1.60000E+00 1.30000E+00 0.00000E+00
 -1        49 1.60000E+00 1.40000E+00 0.00000E+00
 -1        50 1.60000E+00 1.50000E+00 0.00000E+00
 -1        51 1.60000E+00 1.60000E+00 0.00000E+00
 -1        52 1.60000E+00 1.70000E+00 0.00000E+00
 -1        53 1.60000E+00 1.80000E+00 0.00000E+00
 -1        54 1.60000E+00 1.90000E+00 0.00000E+00
 -1        55 1.70000E+00 1.10000E+00 0.00000E+00
 -1        56 1.70000E+00 1.20000E+00 0.00000E+00
 -1        57 1.70000E+00 1.30000E+00 0.00000E+00
 -1        58 1.70000E+00 1.40000E+00 0.00000E+00
 -1        59 1.70000E+00 1.50000E+00 0.00000E+00
 -1        60 1.70000E+00 1.60000E+00 0.00000E+00
 -1        61 1.70000E+00 1.70000E+00 0.00000E+00
 -1        62 1.70000E+00 1.80000E+00 0.00000E+00
 -1        63 1.70000E+00 1.90000E+00 0.00000E+00
 -1        64 1.80000E+00 1.10000E+00 0.00000E+00
 -1        65 1.80000E+00 1.20000E+00 0.00000E+00
 -1        66 1.80000E+00 1.30000E+00 0.00000E+00
 -1        67 1.80000E+00 1.40000E+00 0.00000E+00
 -1        68 1.80000E+00 1.50000E+00 0.00000E+00
 -1        69 1.80000E+00 1.60000E+00 0.00000E+00
 -1        70 1.80000E+00 1.70000E+00 0.00000E+00
 -1        71 1.80000E+00 1.80000E+00 0.00000E+00
 -1        72 1.80000E+00 1.90000E+00 0.00000E+00
 -1        73 1.90000E+00 1.10000E+00 0.00000E+00
 -1        74 1.90000E+00 1.20000E+00 0.00000E+00
 -1        75 1.90000E+00 1.30000E+00 0.00000E+00
 -1        76 1.90000E+00 1.40000E+00 0.00000E+00
 -1        77 1.90000E+00 1.50000E+00 0.00000E+00
 -1        78 1.90000E+00 1.60000E+00 0.00000E+00
 -1        79 1.90000E+00 1.70000E+00 0.00000E+00
 -1        80 1.90000E+00 1.80000E+00 0.00000E+00
 -1        81 1.90000E+00 1.90000E+00 0.00000E+00
 -1        82 1.10000E+00 1.10000E+00 1.00000E-01
 -1        83 1.10000E+00 1.20000E+00 1.00000E-01
 -1        84 1.10000E+00 1.30000E+00 1.00000E-01
 -1        85 1.10000E+00 1.40000E+00 1.00000E-01
 -1        86 1.10000E+00 1.50000E+00 1.00000E-01
 -1        87 1.10000E+00 1.60000E+00 1.00000E-01
 -1        88 1.10000E+00 1.70000E+00 1.00000E-01
 -1        89 1.10000E+00 1.80000E+00 1.00000E-01
 -1        90 1.10000E+00 1.90000E+00 1.00000E-01
 -1        91 1.20000E+00 1.10000E+00 1.00000E-01
 -1        92 1.20000E+00 1.20000E+00 1.00000E-01
 -1        93 1.20000E+00 1.30000E+00 1.00000E-01
 -1        94 1.20000E+00 1.40000E+00 1.00000E-01
 -1        95 1.20000E+00 1.50000E+00 1.00000E-01
 -1        96 1.20000E+00 1.60000E+00 1.00000E-01
 -1        97 1.20000E+00 1.70000E+00 1.00000E-01
 -1        98 1.20000E+00 1.80000E+00 1.00000E-01
 -1        99 1.20000E+00 1.90000E+00 1.00000E-01
 -1       100 1.30000E+00 1.10000E+00 1.00000E-01
 -1       101 1.30000E+00 1.20000E+00 1.00000E-01
 -1       102 1.30000E+00 1.30000E+00 1.00000E-01
 -1       103 1.30000E+00 1.40000E+00 1.00000E-01
 -1       104 1.30000E+00 1.50000E+00 1.00000E-01
 -1       105 1.30000E+00 1.60000E+00 1.00000E-01
 -1       106 1.30000E+00 1.70000E+00 1.00000E-01
 -1       107 1.30000E+00 1.80000E+00 1.00000E-01
 -1       108 1.30000E+00 1.90000E+00 1.00000E-01
 -1       109 1.40000E+00 1.10000E+00 1.00000E-01
 -1       110 1.40000E+00 1.20000E+00 1.00000E-01
 -1       111 1.40000E+00 1.30000E+00 1.00000E-01
 -1       112 1.40000E+00 1.40000E+00 1.00000E-01
 -1       113 1.40000E+00 1.50000E+00 1.00000E-01
 -1       114 1.40000E+00 1.60000E+00 1.00000E-01
 -1       115 1.40000E+00 1.70000E+00 1.00000E-01
 -1       116 1.40000E+00 1.80000E+00 1.00000E-01
 -1       117 1.40000E+00 1.90000E+00 1.00000E-01
 -1       118 1.50000E+00 1.10000E+00 1.00000E-01
 -1       119 1.50000E+00 1.20000E+00 1.00000E-01
 -1       120 1.50000E+00 1.30000E+00 1.00000E-01
 -1       121 1.50000E+00 1.40000E+00 1.00000E-01
 -1       122 1.50000E+00 1.50000E+00 1.00000E-01
 -1       123 1.50000E+00 1.60000E+00 1.00000E-01
 -1       124 1.50000E+00 1.70000E+00 1.00000E-01
 -1       125 1.50000E+00 1.80000E+00 1.00000E-01
 -1       126 1.50000E+00 1.90000E+00 1.00000E-01
 -1       127 1.60000E+00 1.10000E+00 1.00000E-01
 -1       128 1.60000E+00 1.20000E+00 1.00000E-01
 -1       129 1.60000E+00 1.30000E+00 1.00000E-01
 -1       130 1.60000E+00 1.40000E+00 1.00000E-01
 -1       131 1.60000E+00 1.50000E+00 1.00000E-01
 -1       132 1.60000E+00 1.60000E+00 1.00000E-01
 -1       133 1.60000E+00 1.70000E+00 1.00000E-01
 -1       134 1.60000E+00 1.80000E+00 1.00000E-01
 -1       135 1.60000E+00 1.90000E+00 1.00000E-01
 -1       136 1.70000E+00 1.10000E+00 1.00000E-01
 -1       137 1.70000E+00 1.20000E+00 1.00000E-01
 -1       138 1.70000E+00 1.30000E+00 1.00000E-01
 -1       139 1.70000E+00 1.40000E+00 1.00000E-01
 -1       140 1.70000E+00 1.50000E+00 1.00000E-01
 -1       141 1.70000E+00 1.60000E+00 1.00000E-01
 -1       142 1.70000E+00 1.70000E+00 1.00000E-01
 -1       143 1.70000E+00 1.80000E+00 1.00000E-01
 -1       144 1.70000E+00 1.90000E+00 1.00000E-01
 -1       145 1.80000E+00 1.10000E+00 1.00000E-01
 -1       146 1.80000E+00 1.20000E+00 1.00000E-01
 -1       147 1.80000E+00 1.30000E+00 1.00000E-01
 -1       148 1.80000E+00 1.40000E+00 1.00000E-01
 -1       149 1.80000E+00 1.50000E+00 1.00000E-01
 -1       150 1.80000E+00 1.60000E+00 1.00000E-01
 -1       151 1.80000E+00 1.70000E+00 1.00000E-01
 -1       152 1.80000E+00 1.80000E+00 1.00000E-01
 -1       153 1.80000E+00 1.90000E+00 1.00000E-01
 -1       154 1.90000E+00 1.10000E+00 1.00000E-01
 -1       155 1.90000E+00 1.20000E+00 1.00000E-01
 -1       156 1.90000E+00 1.30000E+00 1.00000E-01
 -1       157 1.90000E+00 1.40000E+00 1.00000E-01
 -1       158 1.90000E+00 1.50000E+00 1.00000E-01
 -1       159 1.90000E+00 1.60000E+00 1.00000E-01
 -1       160 1.90000E+00 1.70000E+00 1.00000E-01
 -1       161 1.90000E+00 1.80000E+00 1.00000E-01
 -1       162 1.90000E+00 1.90000E+00 1.00000E-01
 -1       163 1.10000E+00 1.10000E+00 2.00000E-01
 -1       164 1.10000E+00 1.20000E+00 2.00000E-01
 -1       165 1.10000E+00 1.30000E+00 2.00000E-01
 -1       166 1.10000E+00 1.40000E+00 2.00000E-01
 -1       167 1.10000E+00 1.50000E+00 2.00000E-01
 -1       168 1.10000E+00 1.60000E+00 2.00000E-01
 -1       169 1.10000E+00 1.70000E+00 2.00000E-01
 -1       170 1.10000E+00 1.80000E+00 2.00000E-01
 -1       171 1.10000E+00 1.90000E+00 2.00000E-01
 -1       172 1.20000E+00 1.10000E+00 2.00000E-01
 -1       173 1.20000E+00 1.20000E+00 2.00000E-01
 -1       174 1.20000E+00 1.30000E+00 2.00000E-01
 -1       175 1.20000E+00 1.40000E+00 2.00000E-01
 -1       176 1.20000E+00 1.50000E+00 2.00000E-01
 -1       177 1.20000E+00 1.60000E+00 2.00000E-01
 -1       178 1.20000E+00 1.70000E+00 2.00000E-01
 -1       179 1.20000E+00 1.80000E+00 2.00000E-01
 -1       180 1.20000E+00 1.90000E+00 2.00000E-01
 -1       181 1.30000E+00 1.10000E+00 2.00000E-01
 -1       182 1.30000E+00 1.20000E+00 2.00000E-01
 -1       183 1.30000E+00 1.30000E+00 2.00000E-01
 -1       184 1.30000E+00 1.40000E+00 2.00000E-01
 -1       185 1.30000E+00 1.50000E+00 2.00000E-01
 -1       186 1.30000E+00 1.60000E+00 2.00000E-01
 -1       187 1.30000E+00 1.70000E+00 2.00000E-01
 -1       188 1.30000E+00 1.80000E+00 2.00000E-01
 -1       189 1.30000E+00 1.90000E+00 2.00000E-01
 -1       190 1.40000E+00 1.10000E+00 2.00000E-01
 -1       191 1.40000E+00 1.20000E+00 2.00000E-01
 -1       192 1.40000E+00 1.30000E+00 2.00000E-01
 -1       193 1.40000E+00 1.40000E+00 2.00000E-01
 -1       194 1.40000E+00 1.50000E+00 2.00000E-01
 -1       195 1.40000E+00 1.60000E+00 2.00000E-01
 -1       196 1.40000E+00 1.70000E+00 2.00000E-01
 -1       197 1.40000E+00 1.80000E+00 2.00000E-01
 -1       198 1.40000E+00 1.90000E+00 2.00000E-01
 -1       199 1.50000E+00 1.10000E+00 2.00000E-01
 -1       200 1.50000E+00 1.20000E+00 2.00000E-01
 -1       201 1.50000E+00 1.30000E+00 2.00000E-01
 -1       202 1.50000E+00 1.40000E+00 2.00000E-01
 -1       203 1.50000E+00 1.50000E+00 2.00000E-01
 -1       204 1.50000E+00 1.60000E+00 2.00000E-01
 -1       205 1.50000E+00 1.70000E+00 2.00000E-01
 -1       206 1.50000E+00 1.80000E+00 2.00000E-01
 -1       207 1.50000E+00 1.90000E+00 2.00000E-01
 -1       208 1.60000E+00 1.10000E+00 2.00000E-01
 -1       209 1.60000E+00 1.20000E+00 2.00000E-01
 -1       210 1.60000E+00 1.30000E+00 2.00000E-01
 -1       211 1.60000E+00 1.40000E+00 2.00000E-01
 -1       212 1.60000E+00 1.50000E+00 2.00000E-01
 -1       213 1.60000E+00 1.60000E+00 2.00000E-01
 -1       214 1.60000E+00 1.70000E+00 2.00000E-01
 -1       215 1.60000E+00 1.80000E+00 2.00000E-01
 -1       216 1.60000E+00 1.90000E+00 2.00000E-01
 -1       217 1.70000E+00 1.10000E+00 2.00000E-01
 -1       218 1.70000E+00 1.20000E+00 2.00000E-01
 -1       219 1.70000E+00 1.30000E+00 2.00000E-01
 -1       220 1.70000E+00 1.40000E+00 2.00000E-01
 -1       221 1.70000E+00 1.50000E+00 2.00000E-01
 -1       222 1.70000E+00 1.60000E+00 2.00000E-01
 -1       223 1.70000E+00 1.70000E+00 2.00000E-01
 -1       224 1.70000E+00 1.80000E+00 2.00000E-01
 -1       225 1.70000E+00 1.90000E+00 2.00000E-01
 -1       226 1.80000E+00 1.10000E+00 2.00000E-01
 -1       227 1.80000E+00 1.20000E+00 2.00000E-01
 -1       228 1.80000E+00 1.30000E+00 2.00000E-01
 -1       229 1.80000E+00 1.40000E+00 2.00000E-01
 -1       230 1.80000E+00 1.50000E+00 2.00000E-01
 -1       231 1.80000E+00 1.60000E+00 2.00000E-01
 -1       232 1.80000E+00 1.70000E+00 2.00000E-01
 -1       233 1.80000E+00 1.80000E+00 2.00000E-01
 -1       234 1.80000E+00 1.90000E+00 2.00000E-01
 -1       235 1.90000E+00 1.10000E+00 2.00000E-01
 -1       236 1.90000E+00 1.20000E+00 2.00000E-01
 -1       237 1.90000E+00 1.30000E+00 2.00000E-01
 -1       238 1.90000E+00 1.40000E+00 2.00000E-01
 -1       239 1.90000E+00 1.50000E+00 2.00000E-01
 -1       240 1.90000E+00 1.60000E+00 2.00000E-01
 -1       241 1.90000E+00 1.70000E+00 2.00000E-01
 -1       242 1.90000E+00 1.80000E+00 2.00000E-01
 -1       243 1.90000E+00 1.90000E+00 2.00000E-01
 -1       244 1.10000E+00 1.10000E+00 3.00000E-01
 -1       245 1.10000E+00 1.20000E+00 3.00000E-01
 -1       246 1.10000E+00 1.30000E+00 3.00000E-01
 -1       247 1.10000E+00 1.40000E+00 3.00000E-01
 -1       248 1.10000E+00 1.50000E+00 3.00000E-01
 -1       249 1.10000E+00 1.60000E+00 3.00000E-01
 -1       250 1.10000E+00 1.70000E+00 3.00000E-01
 -1       251 1.10000E+00 1.80000E+00 3.00000E-01
 -1       252 1.10000E+00 1.90000E+00 3.00000E-01
 -1       253 1.20000E+00 1.10000E+00 3.00000E-01
 -1       254 1.20000E+00 1.20000E+00 3.00000E-01
 -1       255 1.20000E+00 1.30000E+00 3.00000E-01
 -1       256 1.20000E+00 1.40000E+00 3.00000E-01
 -1       257 1.20000E+00 1.50000E+00 3.00000E-01
 -1       258 1.20000E+00 1.60000E+00 3.00000E-01
 -1       259 1.20000E+00 1.70000E+00 3.00000E-01
 -1       260 1.20000E+00 1.80000E+00 3.00000E-01
 -1       261 1.20000E+00 1.90000E+00 3.00000E-01
 -1       262 1.30000E+00 1.10000E+00 3.00000E-01
 -1       263 1.30000E+00 1.20000E+00 3.00000E-01
 -1       264 1.30000E+00 1.30000E+00 3.00000E-01
 -1       265 1.30000E+00 1.40000E+00 3.00000E-01
 -1       266 1.30000E+00 1.50000E+00 3.00000E-01
 -1       267 1.30000E+00 1.60000E+00 3.00000E-01
 -1       268 1.30000E+00 1.70000E+00 3.00000E-01
 -1       269 1.30000E+00 1.80000E+00 3.00000E-01
 -1       270 1.30000E+00 1.90000E+00 3.00000E-01
 -1       271 1.40000E+00 1.10000E+00 3.00000E-01
 -1       272 1.40000E+00 1.20000E+00 3.00000E-01
 -1       273 1.40000E+00 1.30000E+00 3.00000E-01
 -1       274 1.40000E+00 1.40000E+00 3.00000E-01
 -1       275 1.40000E+00 1.50000E+00 3.00000E-01
 -1       276 1.40000E+00 1.60000E+00 3.00000E-01
 -1       277 1.40000E+00 1.70000E+00 3.00000E-01
 -1       278 1.40000E+00 1.80000E+00 3.00000E-01
 -1       279 1.40000E+00 1.90000E+00 3.00000E-01
 -1       280 1.50000E+00 1.10000E+00 3.00000E-01
 -1       281 1.50000E+00 1.20000E+00 3.00000E-01
 -1       282 1.50000E+00 1.30000E+00 3.00000E-01
 -1       283 1.50000E+00 1.40000E+00 3.00000E-01
 -1       284 1.50000E+00 1.50000E+00 3.00000E-01
 -1       285 1.50000E+00 1.60000E+00 3.00000E-01
 -1       286 1.50000E+00 1.70000E+00 3.00000E-01
 -1       287 1.50000E+00 1.80000E+00 3.00000E-01
 -1       288 1.50000E+00 1.90000E+00 3.00000E-01
 -1       289 1.60000E+00 1.10000E+00 3.00000E-01
 -1       290 1.60000E+00 1.20000E+00 3.00000E-01
 -1       291 1.60000E+00 1.30000E+00 3.00000E-01
 -1       292 1.60000E+00 1.40000E+00 3.00000E-01
 -1       293 1.60000E+00 1.50000E+00 3.00000E-01
 -1       294 1.60000E+00 1.60000E+00 3.00000E-01
 -1       295 1.60000E+00 1.70000E+00 3.00000E-01
 -1       296 1.60000E+00 1.80000E+00 3.00000E-01
 -1       297 1.60000E+00 1.90000E+00 3.00000E-01
 -1       298 1.70000E+00 1.10000E+00 3.00000E-01
 -1       299 1.70000E+00 1.20000E+00 3.00000E-01
 -1       300 1.70000E+00 1.30000E+00 3.00000E-01
 -1       301 1.70000E+00 1.40000E+00 3.00000E-01
 -1       302 1.70000E+00 1.50000E+00 3.00000E-01
 -1       303 1.70000E+00 1.60000E+00 3.00000E-01
 -1       304 1.70000E+00 1.70000E+00 3.00000E-01
 -1       305 1.70000E+00 1.80000E+00 3.00000E-01
 -1       306 1.70000E+00 1.90000E+00 3.00000E-01
 -1       307 1.80000E+00 1.10000E+00 3.00000E-01
 -1       308 1.80000E+00 1.20000E+00 3.00000E-01
 -1       309 1.80000E+00 1.30000E+00 3.00000E-01
 -1       310 1.80000E+00 1.40000E+00 3.00000E-01
 -1       311 1.80000E+00 1.50000E+00 3.00000E-01
 -1       312 1.80000E+00 1.60000E+00 3.00000E-01
 -1       313 1.80000E+00 1.70000E+00 3.00000E-01
 -1       314 1.80000E+00 1.80000E+00 3.00000E-01
 -1       315 1.80000E+00 1.90000E+00 3.00000E-01
 -1       316 1.90000E+00 1.10000E+00 3.00000E-01
 -1       317 1.90000E+00 1.20000E+00 3.00000E-01
 -1       318 1.90000E+00 1.30000E+00 3.00000E-01
 -1       319 1.90000E+00 1.40000E+00 3.00000E-01
 -1       320 1.90000E+00 1.50000E+00 3.00000E-01
 -1       321 1.90000E+00 1.60000E+00 3.00000E-01
 -1       322 1.90000E+00 1.70000E+00 3.00000E-01
 -1       323 1.90000E+00 1.80000E+00 3.00000E-01
 -1       324 1.90000E+00 1.90000E+00 3.00000E-01
 -1       325 1.10000E+00 1.10000E+00 4.00000E-01
 -1       326 1.10000E+00 1.20000E+00 4.00000E-01
 -1       327 1.10000E+00 1.30000E+00 4.00000E-01
 -1       328 1.10000E+00 1.40000E+00 4.00000E-01
 -1       329 1.10000E+00 1.50000E+00 4.00000E-01
 -1       330 1.10000E+00 1.60000E+00 4.00000E-01
 -1       331 1.10000E+00 1.70000E+00 4.00000E-01
 -1       332 1.10000E+00 1.80000E+00 4.00000E-01
 -1       333 1.10000E+00 1.90000E+00 4.00000E-01
 -1       334 1.20000E+00 1.10000E+00 4.00000E-01
 -1       335 1.20000E+00 1.20000E+00 4.00000E-01
 -1       336 1.20000E+00 1.30000E+00 4.00000E-01
 -1       337 1.20000E+00 1.40000E+00 4.00000E-01
 -1       338 1.20000E+00 1.50000E+00 4.00000E-01
 -1       339 1.20000E+00 1.60000E+00 4.00000E-01
 -1       340 1.20000E+00 1.70000E+00 4.00000E-01
 -1       341 1.20000E+00 1.80000E+00 4.00000E-01
 -1       342 1.20000E+00 1.90000E+00 4.00000E-01
 -1       343 1.30000E+00 1.10000E+00 4.00000E-01
 -1       344 1.30000E+00 1.20000E+00 4.00000E-01
 -1       345 1.30000E+00 1.30000E+00 4.00000E-01
 -1       346 1.30000E+00 1.40000E+00 4.00000E-01
 -1       347 1.30000E+00 1.50000E+00 4.00000E-01
 -1       348 1.30000E+00 1.60000E+00 4.00000E-01
 -1       349 1.30000E+00 1.70000E+00 4.00000E-01
 -1       350 1.30000E+00 1.80000E+00 4.00000E-01
 -1       351 1.30000E+00 1.90000E+00 4.00000E-01
 -1       352 1.40000E+00 1.10000E+00 4.00000E-01
 -1       353 1.40000E+00 1.20000E+00 4.00000E-01
 -1       354 1.40000E+00 1.30000E+00 4.00000E-01
 -1       355 1.40000E+00 1.40000E+00 4.00000E-01
 -1       356 1.40000E+00 1.50000E+00 4.00000E-01
 -1       357 1.40000E+00 1.60000E+00 4.00000E-01
 -1       358 1.40000E+00 1.70000E+00 4.00000E-01
 -1       359 1.40000E+00 1.80000E+00 4.00000E-01
 -1       360 1.40000E+00 1.90000E+00 4.00000E-01
 -1       361 1.50000E+00 1.10000E+00 4.00000E-01
 -1       362 1.50000E+00 1.20000E+00 4.00000E-01
 -1       363 1.50000E+00 1.30000E+00 4.00000E-01
 -1       364 1.50000E+00 1.40000E+00 4.00000E-01
 -1       365 1.50000E+00 1.50000E+00 4.00000E-01
 -1       366 1.50000E+00 1.60000E+00 4.00000E-01
 -1       367 1.50000E+00 1.70000E+00 4.00000E-01
 -1       368 1.50000E+00 1.80000E+00 4.00000E-01
 -1       369 1.50000E+00 1.90000E+00 4.00000E-01
 -1       370 1.60000E+00 1.10000E+00 4.00000E-01
 -1       371 1.60000E+00 1.20000E+00 4.00000E-01
 -1       372 1.60000E+00 1.30000E+00 4.00000E-01
 -1       373 1.60000E+00 1.40000E+00 4.00000E-01
 -1       374 1.60000E+00 1.50000E+00 4.00000E-01
 -1       375 1.60000E+00 1.60000E+00 4.00000E-01
 -1       376 1.60000E+00 1.70000E+00 4.00000E-01
 -1       377 1.60000E+00 1.80000E+00 4.00000E-01
 -1       378 1.60000E+00 1.90000E+00 4.00000E-01
 -1       379 1.70000E+00 1.10000E+00 4.00000E-01
 -1       380 1.70000E+00 1.20000E+00 4.00000E-01
 -1       381 1.70000E+00 1.30000E+00 4.00000E-01
 -1       382 1.70000E+00 1.40000E+00 4.00000E-01
 -1       383 1.70000E+00 1.50000E+00 4.00000E-01
 -1       384 1.70000E+00 1.60000E+00 4.00000E-01
 -1       385 1.70000E+00 1.70000E+00 4.00000E-01
 -1       386 1.70000E+00 1.80000E+00 4.00000E-01
 -1       387 1.70000E+00 1.90000E+00 4.00000E-01
 -1       388 1.80000E+00 1.10000E+00 4.00000E-01
 -1       389 1.80000E+00 1.20000E+00 4.00000E-01
 -1       390 1.80000E+00 1.30000E+00 4.00000E-01
 -1       391 1.80000E+00 1.40000E+00 4.00000E-01
 -1       392 1.80000E+00 1.50000E+00 4.00000E-01
 -1       393 1.80000E+00 1.60000E+00 4.00000E-01
 -1       394 1.80000E+00 1.70000E+00 4.00000E-01
 -1       395 1.80000E+00 1.80000E+00 4.00000E-01
 -1       396 1.80000E+00 1.90000E+00 4.00000E-01
 -1       397 1.90000E+00 1.10000E+00 4.00000E-01
 -1       398 1.90000E+00 1.20000E+00 4.00000E-01
 -1       399 1.90000E+00 1.30000E+00 4.00000E-01
 -1       400 1.90000E+00 1.40000E+00 4.00000E-01
 -1       401 1.90000E+00 1.50000E+00 4.00000E-01
 -1       402 1.90000E+00 1.60000E+00 4.00000E-01
 -1       403 1.90000E+00 1.70000E+00 4.00000E-01
 -1       404 1.90000E+00 1.80000E+00 4.00000E-01
 -1       405 1.90000E+00 1.90000E+00 4.00000E-01
 -1       406 1.10000E+00 1.10000E+00 5.00000E-01
 -1       407 1.10000E+00 1.20000E+00 5.00000E-01
 -1       408 1.10000E+00 1.30000E+00 5.00000E-01
 -1       409 1.10000E+00 1.40000E+00 5.00000E-01
 -1       410 1.10000E+00 1.50000E+00 5.00000E-01
 -1       411 1.10000E+00 1.60000E+00 5.00000E-01
 -1       412 1.10000E+00 1.70000E+00 5.00000E-01
 -1       413 1.10000E+00 1.80000E+00 5.00000E-01
 -1       414 1.10000E+00 1.90000E+00 5.00000E-01
 -1       415 1.20000E+00 1.10000E+00 5.00000E-01
 -1       416 1.20000E+00 1.20000E+00 5.00000E-01
 -1       417 1.20000E+00 1.30000E+00 5.00000E-01
 -1       418 1.20000E+00 1.40000E+00 5.00000E-01
 -1       419 1.20000E+00 1.50000E+00 5.00000E-01
 -1       420 1.20000E+00 1.60000E+00 5.00000E-01
 -1       421 1.20000E+00 1.70000E+00 5.00000E-01
 -1       422 1.20000E+00 1.80000E+00 5.00000E-01
 -1       423 1.20000E+00 1.90000E+00 5.00000E-01
 -1       424 1.30000E+00 1.10000E+00 5.00000E-01
 -1       425 1.30000E+00 1.20000E+00 5.00000E-01
 -1       426 1.30000E+00 1.30000E+00 5.00000E-01
 -1       427 1.30000E+00 1.40000E+00 5.00000E-01
 -1       428 1.30000E+00 1.50000E+00 5.00000E-01
 -1       429 1.30000E+00 1.60000E+00 5.00000E-01
 -1       430 1.30000E+00 1.70000E+00 5.00000E-01
 -1       431 1.30000E+00 1.80000E+00 5.00000E-01
 -1       432 1.30000E+00 1.90000E+00 5.00000E-01
 -1       433 1.40000E+00 1.10000E+00 5.00000E-01
 -1       434 1.40000E+00 1.20000E+00 5.00000E-01
 -1       435 1.40000E+00 1.30000E+00 5.00000E-01
 -1       436 1.40000E+00 1.40000E+00 5.00000E-01
 -1       437 1.40000E+00 1.50000E+00 5.00000E-01
 -1       438 1.40000E+00 1.60000E+00 5.00000E-01
 -1       439 1.40000E+00 1.70000E+00 5.00000E-01
 -1       440 1.40000E+00 1.80000E+00 5.00000E-01
 -1       441 1.40000E+00 1.90000E+00 5.00000E-01
 -1       442 1.50000E+00 1.10000E+00 5.00000E-01
 -1       443 1.50000E+00 1.20000E+00 5.00000E-01
 -1       444 1.50000E+00 1.30000E+00 5.00000E-01
 -1       445 1.50000E+00 1.40000E+00 5.00000E-01
 -1       446 1.50000E+00 1.50000E+00 5.00000E-01
 -1       447 1.50000E+00 1.60000E+00 5.00000E-01
 -1       448 1.50000E+00 1.70000E+00 5.00000E-01
 -1       449 1.50000E+00 1.80000E+00 5.00000E-01
 -1       450 1.50000E+00 1.90000E+00 5.00000E-01
 -1       451 1.60000E+00 1.10000E+00 5.00000E-01
 -1       452 1.60000E+00 1.20000E+00 5.00000E-01
 -1       453 1.60000E+00 1.30000E+00 5.00000E-01
 -1       454 1.60000E+00 1.40000E+00 5.00000E-01
 -1       455 1.60000E+00 1.50000E+00 5.00000E-01
 -1       456 1.60000E+00 1.60000E+00 5.00000E-01
 -1       457 1.60000E+00 1.70000E+00 5.00000E-01
 -1       458 1.60000E+00 1.80000E+00 5.00000E-01
 -1       459 1.60000E+00 1.90000E+00 5.00000E-01
 -1       460 1.70000E+00 1.10000E+00 5.00000E-01
 -1       461 1.70000E+00 1.20000E+00 5.00000E-01
 -1       462 1.70000E+00 1.30000E+00 5.00000E-01
 -1       463 1.70000E+00 1.40000E+00 5.00000E-01
 -1       464 1.70000E+00 1.50000E+00 5.00000E-01
 -1       465 1.70000E+00 1.60000E+00 5.00000E-01
 -1       466 1.70000E+00 1.70000E+00 5.00000E-01
 -1       467 1.70000E+00 1.80000E+00 5.00000E-01
 -1       468 1.70000E+00 1.90000E+00 5.00000E-01
 -1       469 1.80000E+00 1.10000E+00 5.00000E-01
 -1       470 1.80000E+00 1.20000E+00 5.00000E-01
 -1       471 1.80000E+00 1.30000E+00 5.00000E-01
 -1       472 1.80000E+00 1.40000E+00 5.00000E-01
 -1       473 1.80000E+00 1.50000E+00 5.00000E-01
 -1       474 1.80000E+00 1.60000E+00 5.00000E-01
 -1       475 1.80000E+00 1.70000E+00 5.00000E-01
 -1       476 1.80000E+00 1.80000E+00 5.00000E-01
 -1       477 1.80000E+00 1.90000E+00 5.00000E-01
 -1       478 1.90000E+00 1.10000E+00 5.00000E-01
 -1       479 1.90000E+00 1.20000E+00 5.00000E-01
 -1       480 1.90000E+00 1.30000E+00 5.00000E-01
 -1       481 1.90000E+00 1.40000E+00 5.00000E-01
 -1       482 1.90000E+00 1.50000E+00 5.00000E-01
 -1       483 1.90000E+00 1.60000E+00 5.00000E-01
 -1       484 1.90000E+00 1.70000E+00 5.00000E-01
 -1       485 1.90000E+00 1.80000E+00 5.00000E-01
 -1       486 1.90000E+00 1.90000E+00 5.00000E-01
 -3
    3C                           320                                     1
 -1         1    1    0    1
 -2         1        10        11         2        82        91        92        83
 -1         2    1    0    1
 -2        82        91        92        83       163       172       173       164
 -1         3    1    0    1
 -2       163       172       173       164       244       253       254       245
 -1         4    1    0    1
 -2       244       253       254       245       325       334       335       326
 -1         5    1    0    1
 -2       325       334       335       326       406       415       416       407
 -1         6    1    0    1
 -2         2        11        12         3        83        92        93        84
 -1         7    1    0    1
 -2        83        92        93        84       164       173       174       165
 -1         8    1    0    1
 -2       164       173       174       165       245       254       255       246
 -1         9    1    0    1
 -2       245       254       255       246       326       335       336       327
 -1        10    1    0    1
 -2       326       335       336       327       407       416       417       408
 -1        11    1    0    1
 -2         3        12        13         4        84        93        94        85
 -1        12    1    0    1
 -2        84        93        94        85       165       174       175       166
 -1        13    1    0    1
 -2       165       174       175       166       246       255       256       247
 -1        14    1    0    1
 -2       246       255       256       247       327       336       337       328
 -1        15    1    0    1
 -2       327       336       337       328       408       417       418       409
 -1        16    1    0    1
 -2         4        13        14         5        85        94        95        86
 -1        17    1    0    1
 -2        85        94        95        86       166       175       176       167
 -1        18    1    0    1
 -2       166       175       176       167       247       256       257       248
 -1        19    1    0    1
 -2       247       256       257       248       328       337       338       329
 -1        20    1    0    1
 -2       328       337       338       329       409       418       419       410
 -1        21    1    0    1
 -2         5        14        15         6        86        95        96        87
 -1        22    1    0    1
 -2        86        95        96        87       167       176       177       168
 -1        23    1    0    1
 -2       167       176       177       168       248       257       258       249
 -1        24    1    0    1
 -2       248       257       258       249       329       338       339       330
 -1        25    1    0    1
 -2       329       338       339       330       410       419       420       411
 -1        26    1    0    1
 -2         6        15        16         7        87        96        97        88
 -1        27    1    0    1
 -2        87        96        97        88       168       177       178       169
 -1        28    1    0    1
 -2       168       177       178       169       249       258       259       250
 -1        29    1    0    1
 -2       249       258       259       250       330       339       340       331
 -1        30    1    0    1
 -2       330       339       340       331       411       420       421       412
 -1        31    1    0    1
 -2         7        16        17         8        88        97        98        89
 -1        32    1    0    1
 -2        88        97        98        89       169       178       179       170
 -1        33    1    0    1
 -2       169       178       179       170       250       259       260       251
 -1        34    1    0    1
 -2       250       259       260       251       331       340       341       332
 -1        35    1    0    1
 -2       331       340       341       332       412       421       422       413
 -1        36    1    0    1
 -2         8        17        18         9        89        98        99        90
 -1        37    1    0    1
 -2        89        98        99        90       170       179       180       171
 -1        38    1    0    1
 -2       170       179       180       171       251       260       261       252
 -1        39    1    0    1
 -2       251       260       261       252       332       341       342       333
 -1        40    1    0    1
 -2       332       341       342       333       413       422       423       414
 -1        41    1    0    1
 -2        10        19        20        11        91       100       101        92
 -1        42    1    0    1
 -2        91       100       101        92       172       181       182       173
 -1        43    1    0    1
 -2       172       181       182       173       253       262       263       254
 -1        44    1    0    1
 -2       253       262       263       254       334       343       344       335
 -1        45    1    0    1
 -2       334       343       344       335       415       424       425       416
 -1        46    1    0    1
 -2        11        20        21        12        92       101       102        93
 -1        47    1    0    1
 -2        92       101       102        93       173       182       183       174
 -1        48    1    0    1
 -2       173       182       183       174       254       263       264       255
 -1        49    1    0    1
 -2       254       263       264       255       335       344       345       336
 -1        50    1    0    1
 -2       335       344       345       336       416       425       426       417
 -1        51    1    0    1
 -2        12        21        22        13        93       102       103        94
 -1        52    1    0    1
 -2        93       102       103        94       174       183       184       175
 -1        53    1    0    1
 -2       174       183       184       175       255       264       265       256
 -1        54    1    0    1
 -2       255       264       265       256       336       345       346       337
 -1        55    1    0    1
 -2       336       345       346       337       417       426       427       418
 -1        56    1    0    1
 -2        13        22        23        14        94       103       104        95
 -1        57    1    0    1
 -2        94       103       104        95       175       184       185       176
 -1        58    1    0    1
 -2       175       184       185       176       256       265       266       257
 -1        59    1    0    1
 -2       256       265       266       257       337       346       347       338
 -1        60    1    0    1
 -2       337       346       347       338       418       427       428       419
 -1        61    1    0    1
 -2        14        23        24        15        95       104       105        96
 -1        62    1    0    1
 -2        95       104       105        96       176       185       186       177
 -1        63    1    0    1
 -2       176       185       186       177       257       266       267       258
 -1        64    1    0    1
 -2       257       266       267       258       338       347       348       339
 -1        65    1    0    1
 -2       338       347       348       339       419       428       429       420
 -1        66    1    0    1
 -2        15        24        25        16        96       105       106        97
 -1        67    1    0    1
 -2        96       105       106        97       177       186       187       178
 -1        68    1    0    1
 -2       177       186       187       178       258       267       268       259
 -1        69    1    0    1
 -2       258       267       268       259       339       348       349       340
 -1        70    1    0    1
 -2       339       348       349       340       420       429       430       421
 -1        71    1    0    1
 -2        16        25        26        17        97       106       107        98
 -1        72    1    0    1
 -2        97       106       107        98       178       187       188       179
 -1        73    1    0    1
 -2       178       187       188       179       259       268       269       260
 -1        74    1    0    1
 -2       259       268       269       260       340       349       350       341
 -1        75    1    0    1
 -2       340       349       350       341       421       430       431       422
 -1        76    1    0    1
 -2        17        26        27        18        98       107       108        99
 -1        77    1    0    1
 -2        98       107       108        99       179       188       189       180
 -1        78    1    0    1
 -2       179       188       189       180       260       269       270       261
 -1        79    1    0    1
 -2       260       269       270       261       341       350       351       342
 -1        80    1    0    1
 -2       341       350       351       342       422       431       432       423
 -1        81    1    0    1
 -2        19        28        29        20       100       109       110       101
 -1        82    1    0    1
 -2       100       109       110       101       181       190       191       182
 -1        83    1    0    1
 -2       181       190       191       182       262       271       272       263
 -1        84    1    0    1
 -2       262       271       272       263       343       352       353       344
 -1        85    1    0    1
 -2       343       352       353       344       424       433       434       425
 -1        86    1    0    1
 -2        20        29        30        21       101       110       111       102
 -1        87    1    0    1
 -2       101       110       111       102       182       191       192       183
 -1        88    1    0    1
 -2       182       191       192       183       263       272       273       264
 -1        89    1    0    1
 -2       263       272       273       264       344       353       354       345
 -1        90    1    0    1
 -2       344       353       354       345       425       434       435       426
 -1        91    1    0    1
 -2        21        30        31        22       102       111       112       103
 -1        92    1    0    1
 -2       102       111       112       103       183       192       193       184
 -1        93    1    0    1
 -2       183       192       193       184       264       273       274       265
 -1        94    1    0    1
 -2       264       273       274       265       345       354       355       346
 -1        95    1    0    1
 -2       345       354       355       346       426       435       436       427
 -1        96    1    0    1
 -2        22        31        32        23       103       112       113       104
 -1        97    1    0    1
 -2       103       112       113       104       184       193       194       185
 -1        98    1    0    1
 -2       184       193       194       185       265       274       275       266
 -1        99    1    0    1
 -2       265       274       275       266       346       355       356       347
 -1       100    1    0    1
 -2       346       355       356       347       427       436       437       428
 -1       101    1    0    1
 -2        23        32        33        24       104       113       114       105
 -1       102    1    0    1
 -2       104       113       114       105       185       194       195       186
 -1       103    1    0    1
 -2       185       194       195       186       266       275       276       267
 -1       104    1    0    1
 -2       266       275       276       267       347       356       357       348
 -1       105    1    0    1
 -2       347       356       357       348       428       437       438       429
 -1       106    1    0    1
 -2        24        33        34        25       105       114       115       106
 -1       107    1    0    1
 -2       105       114       115       106       186       195       196       187
 -1       108    1    0    1
 -2       186       195       196       187       267       276       277       268
 -1       109    1    0    1
 -2       267       276       277       268       348       357       358       349
 -1       110    1    0    1
 -2       348       357       358       349       429       438       439       430
 -1       111    1    0    1
 -2        25        34        35        26       106       115       116       107
 -1       112    1    0    1
 -2       106       115       116       107       187       196       197       188
 -1       113    1    0    1
 -2       187       196       197       188       268       277       278       269
 -1       114    1    0    1
 -2       268       277       278       269       349       358       359       350
 -1       115    1    0    1
 -2       349       358       359       350       430       439       440       431
 -1       116    1    0    1
 -2        26        35        36        27       107       116       117       108
 -1       117    1    0    1
 -2       107       116       117       108       188       197       198       189
 -1       118    1    0    1
 -2       188       197       198       189       269       278       279       270
 -1       119    1    0    1
 -2       269       278       279       270       350       359       360       351
 -1       120    1    0    1
 -2       350       359       360       351       431       440       441       432
 -1       121    1    0    1
 -2        28        37        38        29       109       118       119       110
 -1       122    1    0    1
 -2       109       118       119       110       190       199       200       191
 -1       123    1    0    1
 -2       190       199       200       191       271       280       281       272
 -1       124    1    0    1
 -2       271       280       281       272       352       361       362       353
 -1       125    1    0    1
 -2       352       361       362       353       433       442       443       434
 -1       126    1    0    1
 -2        29        38        39        30       110       119       120       111
 -1       127    1    0    1
 -2       110       119       120       111       191       200       201       192
 -1       128    1    0    1
 -2       191       200       201       192       272       281       282       273
 -1       129    1    0    1
 -2       272       281       282       273       353       362       363       354
 -1       130    1    0    1
 -2       353       362       363       354       434       443       444       435
 -1       131    1    0    1
 -2        30        39        40        31       111       120       121       112
 -1       132    1    0    1
 -2       111       120       121       112       192       201       202       193
 -1       133    1    0    1
 -2       192       201       202       193       273       282       283       274
 -1       134    1    0    1
 -2       273       282       283       274       354       363       364       355
 -1       135    1    0    1
 -2       354       363       364       355       435       444       445       436
 -1       136    1    0    1
 -2        31        40        41        32       112       121       122       113
 -1       137    1    0    1
 -2       112       121       122       113       193       202       203       194
 -1       138    1    0    1
 -2       193       202       203       194       274       283       284       275
 -1       139    1    0    1
 -2       274       283       284       275       355       364       365       356
 -1       140    1    0    1
 -2       355       364       365       356       436       445       446       437
 -1       141    1    0    1
 -2        32        41        42        33       113       122       123       114
 -1       142    1    0    1
 -2       113       122       123       114       194       203       204       195
 -1       143    1    0    1
 -2       194       203       204       195       275       284       285       276
 -1       144    1    0    1
 -2       275       284       285       276       356       365       366       357
 -1       145    1    0    1
 -2       356       365       366       357       437       446       447       438
 -1       146    1    0    1
 -2        33        42        43        34       114       123       124       115
 -1       147    1    0    1
 -2       114       123       124       115       195       204       205       196
 -1       148    1    0    1
 -2       195       204       205       196       276       285       286       277
 -1       149    1    0    1
 -2       276       285       286       277       357       366       367       358
 -1       150    1    0    1
 -2       357       366       367       358       438       447       448       439
 -1       151    1    0    1
 -2        34        43        44        35       115       124       125       116
 -1       152    1    0    1
 -2       115       124       125       116       196       205       206       197
 -1       153    1    0    1
 -2       196       205       206       197       277       286       287       278
 -1       154    1    0    1
 -2       277       286       287       278       358       367       368       359
 -1       155    1    0    1
 -2       358       367       368       359       439       448       449       440
 -1       156    1    0    1
 -2        35        44        45        36       116       125       126       117
 -1       157    1    0    1
 -2       116       125       126       117       197       206       207       198
 -1       158    1    0    1
 -2       197       206       207       198       278       287       288       279
 -1       159    1    0    1
 -2       278       287       288       279       359       368       369       360
 -1       160    1    0    1
 -2       359       368       369       360       440       449       450       441
 -1       161    1    0    1
 -2        37        46        47        38       118       127       128       119
 -1       162    1    0    1
 -2       118       127       128       119       199       208       209       200
 -1       163    1    0    1
 -2       199       208       209       200       280       289       290       281
 -1       164    1    0    1
 -2       280       289       290       281       361       370       371       362
 -1       165    1    0    1
 -2       361       370       371       362       442       451       452       443
 -1       166    1    0    1
 -2        38        47        48        39       119       128       129       120
 -1       167    1    0    1
 -2       119       128       129       120       200       209       210       201
 -1       168    1    0    1
 -2       200       209       210       201       281       290       291       282
 -1       169    1    0    1
 -2       281       290       291       282       362       371       372       363
 -1       170    1    0    1
 -2       362       371       372       363       443       452       453       444
 -1       171    1    0    1
 -2        39        48        49        40       120       129       130       121
 -1       172    1    0    1
 -2       120       129       130       121       201       210       211       202
 -1       173    1    0    1
 -2       201       210       211       202       282       291       292       283
 -1       174    1    0    1
 -2       282       291       292       283       363       372       373       364
 -1       175    1    0    1
 -2       363       372       373       364       444       453       454       445
 -1       176    1    0    1
 -2        40        49        50        41       121       130       131       122
 -1       177    1    0    1
 -2       121       130       131       122       202       211       212       203
 -1       178    1    0    1
 -2       202       211       212       203       283       292       293       284
 -1       179    1    0    1
 -2       283       292       293       284       364       373       374       365
 -1       180    1    0    1
 -2       364       373       374       365       445       454       455       446
 -1       181    1    0    1
 -2        41        50        51        42       122       131       132       123
 -1       182    1    0    1
 -2       122       131       132       123       203       212       213       204
 -1       183    1    0    1
 -2       203       212       213       204       284       293       294       285
 -1       184    1    0    1
 -2       284       293       294       285       365       374       375       366
 -1       185    1    0    1
 -2       365       374       375       366       446       455       456       447
 -1       186    1    0    1
 -2        42        51        52        43       123       132       133       124
 -1       187    1    0    1
 -2       123       132       133       124       204       213       214       205
 -1       188    1    0    1
 -2       204       213       214       205       285       294       295       286
 -1       189    1    0    1
 -2       285       294       295       286       366       375       376       367
 -1       190    1    0    1
 -2       366       375       376       367       447       456       457       448
 -1       191    1    0    1
 -2        43        52        53        44       124       133       134       125
 -1       192    1    0    1
 -2       124       133       134       125       205       214       215       206
 -1       193    1    0    1
 -2       205       214       215       206       286       295       296       287
 -1       194    1    0    1
 -2       286       295       296       287       367       376       377       368
 -1       195    1    0    1
 -2       367       376       377       368       448       457       458       449
 -1       196    1    0    1
 -2        44        53        54        45       125       134       135       126
 -1       197    1    0    1
 -2       125       134       135       126       206       215       216       207
 -1       198    1    0    1
 -2       206       215       216       207       287       296       297       288
 -1       199    1    0    1
 -2       287       296       297       288       368       377       378       369
 -1       200    1    0    1
 -2       368       377       378       369       449       458       459       450
 -1       201    1    0    1
 -2        46        55        56        47       127       136       137       128
 -1       202    1    0    1
 -2       127       136       137       128       208       217       218       209
 -1       203    1    0    1
 -2       208       217       218       209       289       298       299       290
 -1       204    1    0    1
 -2       289       298       299       290       370       379       380       371
 -1       205    1    0    1
 -2       370       379       380       371       451       460       461       452
 -1       206    1    0    1
 -2        47        56        57        48       128       137       138       129
 -1       207    1    0    1
 -2       128       137       138       129       209       218       219       210
 -1       208    1    0    1
 -2       209       218       219       210       290       299       300       291
 -1       209    1    0    1
 -2       290       299       300       291       371       380       381       372
 -1       210    1    0    1
 -2       371       380       381       372       452       461       462       453
 -1       211    1    0    1
 -2        48        57        58        49       129       138       139       130
 -1       212    1    0    1
 -2       129       138       139       130       210       219       220       211
 -1       213    1    0    1
 -2       210       219       220       211       291       300       301       292
 -1       214    1    0    1
 -2       291       300       301       292       372       381       382       373
 -1       215    1    0    1
 -2       372       381       382       373       453       462       463       454
 -1       216    1    0    1
 -2        49        58        59        50       130       139       140       131
 -1       217    1    0    1
 -2       130       139       140       131       211       220       221       212
 -1       218    1    0    1
 -2       211       220       221       212       292       301       302       293
 -1       219    1    0    1
 -2       292       301       302       293       373       382       383       374
 -1       220    1    0    1
 -2       373       382       383       374       454       463       464       455
 -1       221    1    0    1
 -2        50        59        60        51       131       140       141       132
 -1       222    1    0    1
 -2       131       140       141       132       212       221       222       213
 -1       223    1    0    1
 -2       212       221       222       213       293       302       303       294
 -1       224    1    0    1
 -2       293       302       303       294       374       383       384       375
 -1       225    1    0    1
 -2       374       383       384       375       455       464       465       456
 -1       226    1    0    1
 -2        51        60        61        52       132       141       142       133
 -1       227    1    0    1
 -2       132       141       142       133       213       222       223       214
 -1       228    1    0    1
 -2       213       222       223       214       294       303       304       295
 -1       229    1    0    1
 -2       294       303       304       295       375       384       385       376
 -1       230    1    0    1
 -2       375       384       385       376       456       465       466       457
 -1       231    1    0    1
 -2        52        61        62        53       133       142       143       134
 -1       232    1    0    1
 -2       133       142       143       134       214       223       224       215
 -1       233    1    0    1
 -2       214       223       224       215       295       304       305       296
 -1       234    1    0    1
 -2       295       304       305       296       376       385       386       377
 -1       235    1    0    1
 -2       376       385       386       377       457       466       467       458
 -1       236    1    0    1
 -2        53        62        63        54       134       143       144       135
 -1       237    1    0    1
 -2       134       143       144       135       215       224       225       216
 -1       238    1    0    1
 -2       215       224       225       216       296       305       306       297
 -1       239    1    0    1
 -2       296       305       306       297       377       386       387       378
 -1       240    1    0    1
 -2       377       386       387       378       458       467       468       459
 -1       241    1    0    1
 -2        55        64        65        56       136       145       146       137
 -1       242    1    0    1
 -2       136       145       146       137       217       226       227       218
 -1       243    1    0    1
 -2       217       226       227       218       298       307       308       299
 -1       244    1    0    1
 -2       298       307       308       299       379       388       389       380
 -1       245    1    0    1
 -2       379       388       389       380       460       469       470       461
 -1       246    1    0    1
 -2        56        65        66        57       137       146       147       138
 -1       247    1    0    1
 -2       137       146       147       138       218       227       228       219
 -1       248    1    0    1
 -2       218       227       228       219       299       308       309       300
 -1       249    1    0    1
 -2       299       308       309       300       380       389       390       381
 -1       250    1    0    1
 -2       380       389       390       381       461       470       471       462
 -1       251    1    0    1
 -2        57        66        67        58       138       147       148       139
 -1       252    1    0    1
 -2       138       147       148       139       219       228       229       220
 -1       253    1    0    1
 -2       219       228       229       220       300       309       310       301
 -1       254    1    0    1
 -2       300       309       310       301       381       390       391       382
 -1       255    1    0    1
 -2       381       390       391       382       462       471       472       463
 -1       256    1    0    1
 -2        58        67        68        59       139       148       149       140
 -1       257    1    0    1
 -2       139       148       149       140       220       229       230       221
 -1       258    1    0    1
 -2       220       229       230       221       301       310       311       302
 -1       259    1    0    1
 -2       301       310       311       302       382       391       392       383
 -1       260    1    0    1
 -2       382       391       392       383       463       472       473       464
 -1       261    1    0    1
 -2        59        68        69        60       140       149       150       141
 -1       262    1    0    1
 -2       140       149       150       141       221       230       231       222
 -1       263    1    0    1
 -2       221       230       231       222       302       311       312       303
 -1       264    1    0    1
 -2       302       311       312       303       383       392       393       384
 -1       265    1    0    1
 -2       383       392       393       384       464       473       474       465
 -1       266    1    0    1
 -2        60        69        70        61       141       150       151       142
 -1       267    1    0    1
 -2       141       150       151       142       222       231       232       223
 -1       268    1    0    1
 -2       222       231       232       223       303       312       313       304
 -1       269    1    0    1
 -2       303       312       313       304       384       393       394       385
 -1       270    1    0    1
 -2       384       393       394       385       465       474       475       466
 -1       271    1    0    1
 -2        61        70        71        62       142       151       152       143
 -1       272    1    0    1
 -2       142       151       152       143       223       232       233       224
 -1       273    1    0    1
 -2       223       232       233       224       304       313       314       305
 -1       274    1    0    1
 -2       304       313       314       305       385       394       395       386
 -1       275    1    0    1
 -2       385       394       395       386       466       475       476       467
 -1       276    1    0    1
 -2        62        71        72        63       143       152       153       144
 -1       277    1    0    1
 -2       143       152       153       144       224       233       234       225
 -1       278    1    0    1
 -2       224       233       234       225       305       314       315       306
 -1       279    1    0    1
 -2       305       314       315       306       386       395       396       387
 -1       280    1    0    1
 -2       386       395       396       387       467       476       477       468
 -1       281    1    0    1
 -2        64        73        74        65       145       154       155       146
 -1       282    1    0    1
 -2       145       154       155       146       226       235       236       227
 -1       283    1    0    1
 -2       226       235       236       227       307       316       317       308
 -1       284    1    0    1
 -2       307       316       317       308       388       397       398       389
 -1       285    1    0    1
 -2       388       397       398       389       469       478       479       470
 -1       286    1    0    1
 -2        65        74        75        66       146       155       156       147
 -1       287    1    0    1
 -2       146       155       156       147       227       236       237       228
 -1       288    1    0    1
 -2       227       236       237       228       308       317       318       309
 -1       289    1    0    1
 -2       308       317       318       309       389       398       399       390
 -1       290    1    0    1
 -2       389       398       399       390       470       479       480       471
 -1       291    1    0    1
 -2        66        75        76        67       147       156       157       148
 -1       292    1    0    1
 -2       147       156       157       148       228       237       238       229
 -1       293    1    0    1
 -2       228       237       238       229       309       318       319       310
 -1       294    1    0    1
 -2       309       318       319       310       390       399       400       391
 -1       295    1    0    1
 -2       390       399       400       391       471       480       481       472
 -1       296    1    0    1
 -2        67        76        77        68       148       157       158       149
 -1       297    1    0    1
 -2       148       157       158       149       229       238       239       230
 -1       298    1    0    1
 -2       229       238       239       230       310       319       320       311
 -1       299    1    0    1
 -2       310       319       320       311       391       400       401       392
 -1       300    1    0    1
 -2       391       400       401       392       472       481       482       473
 -1       301    1    0    1
 -2        68        77        78        69       149       158       159       150
 -1       302    1    0    1
 -2       149       158       159       150       230       239       240       231
 -1       303    1    0    1
 -2       230       239       240       231       311       320       321       312
 -1       304    1    0    1
 -2       311       320       321       312       392       401       402       393
 -1       305    1    0    1
 -2       392       401       402       393       473       482       483       474
 -1       306    1    0    1
 -2        69        78        79        70       150       159       160       151
 -1       307    1    0    1
 -2       150       159       160       151       231       240       241       232
 -1       308    1    0    1
 -2       231       240       241       232       312       321       322       313
 -1       309    1    0    1
 -2       312       321       322       313       393       402       403       394
 -1       310    1    0    1
 -2       393       402       403       394       474       483       484       475
 -1       311    1    0    1
 -2        70        79        80        71       151       160       161       152
 -1       312    1    0    1
 -2       151       160       161       152       232       241       242       233
 -1       313    1    0    1
 -2       232       241       242       233       313       322       323       314
 -1       314    1    0    1
 -2       313       322       323       314       394       403       404       395
 -1       315    1    0    1
 -2       394       403       404       395       475       484       485       476
 -1       316    1    0    1
 -2        71        80        81        72       152       161       162       153
 -1       317    1    0    1
 -2       152       161       162       153       233       242       243       234
 -1       318    1    0    1
 -2       233       242       243       234       314       323       324       315
 -1       319    1    0    1
 -2       314       323       324       315       395       404       405       396
 -1       320    1    0    1
 -2       395       404       405       396       476       485       486       477
 -3
    1PSTEP                         1           1           1          
  100CL  101 1.000000000         486                     0    1           1
 -4  DISP        4    1
 -5  D1          1    2    1    0
 -5  D2          1    2    2    0
 -5  D3          1    2    3    0
 -5  ALL         1    2    0    0    1ALL
 -1         1 0.00000E+00 0.00000E+00 0.00000E+00
 -1       486 4.22689E-05 4.24682E-05 4.26694E-05
 -1         2 0.00000E+00 0.00000E+00 0.00000E+00
 -1         3 0.00000E+00 0.00000E+00 0.00000E+00
 -1         4 0.00000E+00 0.00000E+00 0.00000E+00
 -1         5 0.00000E+00 0.00000E+00 0.00000E+00
 -1         6 0.00000E+00 0.00000E+00 0.00000E+00
 -1         7 0.00000E+00 0.00000E+00 0.00000E+00
 -1         8 0.00000E+00 0.00000E+00 0.00000E+00
 -1         9 0.00000E+00 0.00000E+00 0.00000E+00
 -1        10 0.00000E+00 0.00000E+00 0.00000E+00
 -1        11 0.00000E+00 0.00000E+00 0.00000E+00
 -1        12 0.00000E+00 0.00000E+00 0.00000E+00
 -1        13 0.00000E+00 0.00000E+00 0.00000E+00
 -1        14 0.00000E+00 0.00000E+00 0.00000E+00
 -1        15 0.00000E+00 0.00000E+00 0.00000E+00
 -1        16 0.00000E+00 0.00000E+00 0.00000E+00
 -1        17 0.00000E+00 0.00000E+00 0.00000E+00
 -1        18 0.00000E+00 0.00000E+00 0.00000E+00
 -1        19 0.00000E+00 0.00000E+00 0.00000E+00
 -1        20 0.00000E+00 0.00000E+00 0.00000E+00
 -1        21 0.00000E+00 0.00000E+00 0.00000E+00
 -1        22 0.00000E+00 0.00000E+00 0.00000E+00
 -1        23 0.00000E+00 0.00000E+00 0.00000E+00
 -1        24 0.00000E+00 0.00000E+00 0.00000E+00
 -1        25 0.00000E+00 0.00000E+00 0.00000E+00
 -1        26 0.00000E+00 0.00000E+00 0.00000E+00
 -1        27 0.00000E+00 0.00000E+00 0.00000E+00
 -1        28 0.00000E+00 0.00000E+00 0.00000E+00
 -1        29 0.00000E+00 0.00000E+00 0.00000E+00
 -1        30 0.00000E+00 0.00000E+00 0.00000E+00
 -1        31 0.00000E+00 0.00000E+00 0.00000E+00
 -1        32 0.00000E+00 0.00000E+00 0.00000E+00
 -1        33 0.00000E+00 0.00000E+00 0.00000E+00
 -1        34 0.00000E+00 0.00000E+00 0.00000E+00
 -1        35 0.00000E+00 0.00000E+00 0.00000E+00
 -1        36 0.00000E+00 0.00000E+00 0.00000E+00
 -1        37 0.00000E+00 0.00000E+00 0.00000E+00
 -1        38 0.00000E+00 0.00000E+00 0.00000E+00
 -1        39 0.00000E+00 0.00000E+00 0.00000E+00
 -1        40 0.00000E+00 0.00000E+00 0.00000E+00
 -1        41 0.00000E+00 0.00000E+00 0.00000E+00
 -1        42 0.00000E+00 0.00000E+00 0.00000E+00
 -1        43 0.00000E+00 0.00000E+00 0.00000E+00
 -1        44 0.00000E+00 0.00000E+00 0.00000E+00
 -1        45 0.00000E+00 0.00000E+00 0.00000E+00
 -1        46 0.00000E+00 0.00000E+00 0.00000E+00
 -1        47 0.00000E+00 0.00000E+00 0.00000E+00
 -1        48 0.00000E+00 0.00000E+00 0.00000E+00
 -1        49 0.00000E+00 0.00000E+00 0.00000E+00
 -1        50 0.00000E+00 0.00000E+00 0.00000E+00
 -1        51 0.00000E+00 0.00000E+00 0.00000E+00
 -1        52 0.00000E+00 0.00000E+00 0.00000E+00
 -1        53 0.00000E+00 0.00000E+00 0.00000E+00
 -1        54 0.00000E+00 0.00000E+00 0.00000E+00
 -1        55 0.00000E+00 0.00000E+00 0.00000E+00
 -1        56 0.00000E+00 0.00000E+00 0.00000E+00
 -1        57 0.00000E+00 0.00000E+00 0.00000E+00
 -1        58 0.00000E+00 0.00000E+00 0.00000E+00
 -1        59 0.00000E+00 0.00000E+00 0.00000E+00
 -1        60 0.00000E+00 0.00000E+00 0.00000E+00
 -1        61 0.00000E+00 0.00000E+00 0.00000E+00
 -1        62 0.00000E+00 0.00000E+00 0.00000E+00
 -1        63 0.00000E+00 0.00000E+00 0.00000E+00
 -1        64 0.00000E+00 0.00000E+00 0.00000E+00
 -1        65 0.00000E+00 0.00000E+00 0.00000E+00
 -1        66 0.00000E+00 0.00000E+00 0.00000E+00
 -1        67 0.00000E+00 0.00000E+00 0.00000E+00
 -1        68 0.00000E+00 0.00000E+00 0.00000E+00
 -1        69 0.00000E+00 0.00000E+00 0.00000E+00
 -1        70 0.00000E+00 0.00000E+00 0.00000E+00
 -1        71 0.00000E+00 0.00000E+00 0.00000E+00
 -1        72 0.00000E+00 0.00000E+00 0.00000E+00
 -1        73 0.00000E+00 0.00000E+00 0.00000E+00
 -1        74 0.00000E+00 0.00000E+00 0.00000E+00
 -1        75 0.00000E+00 0.00000E+00 0.00000E+00
 -1        76 0.00000E+00 0.00000E+00 0.00000E+00
 -1        77 0.00000E+00 0.00000E+00 0.00000E+00
 -1        78 0.00000E+00 0.00000E+00 0.00000E+00
 -1        79 0.00000E+00 0.00000E+00 0.00000E+00
 -1        80 0.00000E+00 0.00000E+00 0.00000E+00
 -1        81 0.00000E+00 0.00000E+00 0.00000E+00
 -1        82-2.29139E-05-2.29207E-05-3.28597E-06
 -1        83-2.28304E-05-1.27165E-05 4.79699E-06
 -1        84-2.30698E-05-7.29386E-06 6.12932E-06
 -1        85-2.31240E-05-3.32810E-06 6.75495E-06
 -1        86-2.30831E-05 9.58240E-08 6.94054E-06
 -1        87-2.29908E-05 3.46206E-06 6.79629E-06
 -1        88-2.28808E-05 7.30828E-06 6.18485E-06
 -1        89-2.26627E-05 1.26295E-05 4.84245E-06
 -1        90-2.27794E-05 2.27741E-05-3.19135E-06
 -1        91-1.27127E-05-2.28078E-05 4.81360E-06
 -1        92-1.27096E-05-1.26980E-05 1.29979E-05
 -1        93-1.28039E-05-7.24388E-06 1.43761E-05
 -1        94-1.28728E-05-3.32806E-06 1.50297E-05
 -1        95-1.28607E-05 5.04925E-08 1.52007E-05
 -1        96-1.27985E-05 3.39343E-06 1.50139E-05
 -1        97-1.26948E-05 7.23545E-06 1.43448E-05
 -1        98-1.26081E-05 1.26206E-05 1.29574E-05
 -1        99-1.26317E-05 2.26853E-05 4.82502E-06
 -1       100-7.31568E-06-2.30308E-05 6.15965E-06
 -1       101-7.26203E-06-1.27884E-05 1.43848E-05
 -1       102-7.30987E-06-7.29912E-06 1.57298E-05
 -1       103-7.35264E-06-3.35293E-06 1.63672E-05
 -1       104-7.35830E-06 3.38405E-08 1.65345E-05
 -1       105-7.32322E-06 3.38936E-06 1.63507E-05
 -1       106-7.26417E-06 7.27484E-06 1.56950E-05
 -1       107-7.21726E-06 1.27103E-05 1.43357E-05
 -1       108-7.28639E-06 2.29197E-05 6.15374E-06
 -1       109-3.38526E-06-2.30986E-05 6.78258E-06
 -1       110-3.36149E-06-1.28665E-05 1.50446E-05
 -1       111-3.37253E-06-7.34995E-06 1.63753E-05
 -1       112-3.39409E-06-3.38393E-06 1.70047E-05
 -1       113-3.40325E-06 2.20451E-08 1.71697E-05
 -1       114-3.39400E-06 3.40388E-06 1.69890E-05
 -1       115-3.36990E-06 7.32555E-06 1.63426E-05
 -1       116-3.35973E-06 1.28044E-05 1.49989E-05
 -1       117-3.40417E-06 2.30164E-05 6.76881E-06
 -1       118 2.19751E-08-2.31029E-05 6.95146E-06
 -1       119 1.00320E-08-1.28774E-05 1.52190E-05
 -1       120 7.71982E-09-7.36521E-06 1.65476E-05
 -1       121 5.28418E-09-3.39761E-06 1.71760E-05
 -1       122-1.56255E-10 1.23174E-08 1.73418E-05
 -1       123-5.58444E-09 3.40854E-06 1.71634E-05
 -1       124-7.95568E-09 7.35096E-06 1.65214E-05
 -1       125-1.02236E-08 1.28436E-05 1.51824E-05
 -1       126-2.22279E-08 2.30628E-05 6.93038E-06
 -1       127 3.41679E-06-2.30596E-05 6.78919E-06
 -1       128 3.37238E-06-1.28389E-05 1.50353E-05
 -1       129 3.37876E-06-7.33787E-06 1.63684E-05
 -1       130 3.39839E-06-3.38883E-06 1.70014E-05
 -1       131 3.40299E-06 7.75594E-09 1.71697E-05
 -1       132 3.38908E-06 3.39880E-06 1.69922E-05
 -1       133 3.36301E-06 7.33771E-06 1.63493E-05
 -1       134 3.34848E-06 1.28325E-05 1.50082E-05
 -1       135 3.37227E-06 2.30555E-05 6.76233E-06
 -1       136 7.31887E-06-2.29675E-05 6.17169E-06
 -1       137 7.25020E-06-1.27432E-05 1.43700E-05
 -1       138 7.29282E-06-7.28024E-06 1.57187E-05
 -1       139 7.34053E-06-3.36279E-06 1.63622E-05
 -1       140 7.35806E-06 8.91023E-09 1.65346E-05
 -1       141 7.33496E-06 3.37911E-06 1.63556E-05
 -1       142 7.28113E-06 7.29381E-06 1.57057E-05
 -1       143 7.22894E-06 1.27560E-05 1.43508E-05
 -1       144 7.28249E-06 2.29841E-05 6.14228E-06
 -1       145 1.26871E-05-2.27336E-05 4.83337E-06
 -1       146 1.26683E-05-1.26468E-05 1.29830E-05
 -1       147 1.27542E-05-7.22680E-06 1.43632E-05
 -1       148 1.28375E-05-3.34733E-06 1.50232E-05
 -1       149 1.28605E-05 1.33016E-08 1.52009E-05
 -1       150 1.28338E-05 3.37363E-06 1.50205E-05
 -1       151 1.27450E-05 7.25241E-06 1.43577E-05
 -1       152 1.26503E-05 1.26719E-05 1.29730E-05
 -1       153 1.26584E-05 2.27612E-05 4.80636E-06
 -1       154 2.28601E-05-2.28306E-05-3.23312E-06
 -1       155 2.27559E-05-1.26555E-05 4.81651E-06
 -1       156 2.29804E-05-7.28314E-06 6.15417E-06
 -1       157 2.30594E-05-3.37727E-06 6.77443E-06
 -1       158 2.30828E-05 1.71635E-08 6.94108E-06
 -1       159 2.30556E-05 3.41191E-06 6.77738E-06
 -1       160 2.29712E-05 7.31826E-06 6.15998E-06
 -1       161 2.27389E-05 1.26900E-05 4.82331E-06
 -1       162 2.28357E-05 2.28652E-05-3.24342E-06
 -1       163-3.11612E-05-3.11560E-05 8.39176E-06
 -1       164-3.16036E-05-2.21071E-05 1.43415E-05
 -1       165-3.19803E-05-1.33959E-05 1.78081E-05
 -1       166-3.21461E-05-6.23282E-06 1.92449E-05
 -1       167-3.20764E-05 1.76645E-07 1.96970E-05
 -1       168-3.18798E-05 6.48580E-06 1.92587E-05
 -1       169-3.15977E-05 1.34289E-05 1.78130E-05
 -1       170-3.12638E-05 2.19432E-05 1.43267E-05
 -1       171-3.08912E-05 3.08993E-05 8.41041E-06
 -1       172-2.21157E-05-3.15471E-05 1.43674E-05
 -1       173-2.20965E-05-2.20605E-05 2.03751E-05
 -1       174-2.23202E-05-1.33169E-05 2.38458E-05
 -1       175-2.24281E-05-6.23473E-06 2.52829E-05
 -1       176-2.23986E-05 9.59646E-08 2.57118E-05
 -1       177-2.22711E-05 6.36532E-06 2.52390E-05
 -1       178-2.20873E-05 1.33097E-05 2.37622E-05
 -1       179-2.18770E-05 2.19140E-05 2.02706E-05
 -1       180-2.19320E-05 3.13214E-05 1.43003E-05
 -1       181-1.34465E-05-3.18943E-05 1.78553E-05
 -1       182-1.33599E-05-2.22769E-05 2.38629E-05
 -1       183-1.34370E-05-1.34077E-05 2.73206E-05
 -1       184-1.35033E-05-6.28105E-06 2.87458E-05
 -1       185-1.35045E-05 6.71684E-08 2.91708E-05
 -1       186-1.34451E-05 6.36284E-06 2.86989E-05
 -1       187-1.33448E-05 1.33741E-05 2.72305E-05
 -1       188-1.32659E-05 2.21301E-05 2.37453E-05
 -1       189-1.33763E-05 3.16836E-05 1.77666E-05
 -1       190-6.34460E-06-3.20911E-05 1.92961E-05
 -1       191-6.30297E-06-2.24058E-05 2.53143E-05
 -1       192-6.32541E-06-1.34904E-05 2.87628E-05
 -1       193-6.35654E-06-6.32924E-06 3.01854E-05
 -1       194-6.36936E-06 4.61478E-08 3.06113E-05
 -1       195-6.35444E-06 6.38125E-06 3.01433E-05
 -1       196-6.31865E-06 1.34575E-05 2.86820E-05
 -1       197-6.29662E-06 2.22920E-05 2.52081E-05
 -1       198-6.37269E-06 3.19333E-05 1.92091E-05
 -1       199 3.93135E-08-3.21150E-05 1.97373E-05
 -1       200 1.84934E-08-2.24274E-05 2.57551E-05
 -1       201 1.38241E-08-1.35113E-05 2.92039E-05
 -1       202 8.89504E-09-6.35173E-06 3.06287E-05
 -1       203-2.86639E-10 2.98928E-08 3.10580E-05
 -1       204-9.40596E-09 6.38636E-06 3.05938E-05
 -1       205-1.42195E-08 1.34970E-05 2.91378E-05
 -1       206-1.88177E-08 2.23684E-05 2.56691E-05
 -1       207-3.97768E-08 3.20356E-05 1.96584E-05
 -1       208 6.40210E-06-3.20178E-05 1.92868E-05
 -1       209 6.32462E-06-2.23524E-05 2.52928E-05
 -1       210 6.33846E-06-1.34686E-05 2.87462E-05
 -1       211 6.36478E-06-6.33911E-06 3.01770E-05
 -1       212 6.36884E-06 2.17683E-08 3.06113E-05
 -1       213 6.34492E-06 6.37097E-06 3.01518E-05
 -1       214 6.30424E-06 1.34794E-05 2.86989E-05
 -1       215 6.27409E-06 2.23459E-05 2.52301E-05
 -1       216 6.31427E-06 3.20073E-05 1.92187E-05
 -1       217 1.34504E-05-3.17729E-05 1.78398E-05
 -1       218 1.33379E-05-2.21880E-05 2.38252E-05
 -1       219 1.34063E-05-1.33733E-05 2.72903E-05
 -1       220 1.34817E-05-6.30083E-06 2.87302E-05
 -1       221 1.35040E-05 2.23385E-08 2.91710E-05
 -1       222 1.34660E-05 6.34218E-06 2.87151E-05
 -1       223 1.33751E-05 1.34084E-05 2.72615E-05
 -1       224 1.32877E-05 2.22198E-05 2.37839E-05
 -1       225 1.33723E-05 3.18064E-05 1.77831E-05
 -1       226 2.20594E-05-3.14056E-05 1.43563E-05
 -1       227 2.20108E-05-2.19587E-05 2.03339E-05
 -1       228 2.22174E-05-1.32846E-05 2.38102E-05
 -1       229 2.23552E-05-6.27065E-06 2.52643E-05
 -1       230 2.23978E-05 2.90979E-08 2.57124E-05
 -1       231 2.23429E-05 6.32831E-06 2.52589E-05
 -1       232 2.21901E-05 1.33413E-05 2.37991E-05
 -1       233 2.19637E-05 2.20159E-05 2.03135E-05
 -1       234 2.19900E-05 3.14642E-05 1.43136E-05
 -1       235 3.10610E-05-3.09889E-05 8.40945E-06
 -1       236 3.14581E-05-2.19862E-05 1.43312E-05
 -1       237 3.18033E-05-1.33737E-05 1.78071E-05
 -1       238 3.20186E-05-6.32121E-06 1.92505E-05
 -1       239 3.20752E-05 3.68418E-08 1.96983E-05
 -1       240 3.20063E-05 6.39540E-06 1.92555E-05
 -1       241 3.17758E-05 1.34492E-05 1.78162E-05
 -1       242 3.14116E-05 2.20633E-05 1.43389E-05
 -1       243 3.09944E-05 3.10667E-05 8.39518E-06
 -1       244-3.62927E-05-3.62652E-05 2.12486E-05
 -1       245-3.65008E-05-2.67804E-05 2.54973E-05
 -1       246-3.68322E-05-1.73181E-05 2.90846E-05
 -1       247-3.69278E-05-8.27076E-06 3.11950E-05
 -1       248-3.68003E-05 2.54233E-07 3.18262E-05
 -1       249-3.65551E-05 8.64611E-06 3.11000E-05
 -1       250-3.62954E-05 1.73938E-05 2.89221E-05
 -1       251-3.60259E-05 2.65884E-05 2.53082E-05
 -1       252-3.59124E-05 3.59448E-05 2.10725E-05
 -1       253-2.68095E-05-3.64051E-05 2.55171E-05
 -1       254-2.68204E-05-2.67550E-05 2.96712E-05
 -1       255-2.70000E-05-1.72642E-05 3.32134E-05
 -1       256-2.70789E-05-8.30368E-06 3.52724E-05
 -1       257-2.70147E-05 1.44392E-07 3.58739E-05
 -1       258-2.68635E-05 8.51220E-06 3.51445E-05
 -1       259-2.66802E-05 1.72850E-05 3.29997E-05
 -1       260-2.65183E-05 2.65855E-05 2.94286E-05
 -1       261-2.65543E-05 3.61230E-05 2.52880E-05
 -1       262-1.74009E-05-3.66946E-05 2.91207E-05
 -1       263-1.73365E-05-2.69263E-05 3.32275E-05
 -1       264-1.74063E-05-1.73525E-05 3.67760E-05
 -1       265-1.74558E-05-8.35572E-06 3.88405E-05
 -1       266-1.74438E-05 1.06098E-07 3.94446E-05
 -1       267-1.73776E-05 8.49922E-06 3.87169E-05
 -1       268-1.72824E-05 1.73370E-05 3.65672E-05
 -1       269-1.72106E-05 2.67533E-05 3.29854E-05
 -1       270-1.73065E-05 3.64304E-05 2.88863E-05
 -1       271-8.43632E-06-3.68360E-05 3.12502E-05
 -1       272-8.40866E-06-2.70355E-05 3.53113E-05
 -1       273-8.42918E-06-1.74248E-05 3.88663E-05
 -1       274-8.45696E-06-8.40637E-06 4.09445E-05
 -1       275-8.46883E-06 7.66069E-08 4.15618E-05
 -1       276-8.45680E-06 8.50712E-06 4.08415E-05
 -1       277-8.42571E-06 1.74082E-05 3.86910E-05
 -1       278-8.40670E-06 2.69045E-05 3.51051E-05
 -1       279-8.47918E-06 3.66421E-05 3.10452E-05
 -1       280 5.78221E-08-3.68444E-05 3.19058E-05
 -1       281 3.04615E-08-2.70430E-05 3.59505E-05
 -1       282 2.29007E-08-1.74410E-05 3.95089E-05
 -1       283 1.39993E-08-8.43198E-06 4.15994E-05
 -1       284-3.57002E-10 5.31463E-08 4.22318E-05
 -1       285-1.46747E-08 8.50520E-06 4.15242E-05
 -1       286-2.34658E-08 1.74458E-05 3.93801E-05
 -1       287-3.08699E-08 2.69835E-05 3.57968E-05
 -1       288-5.83277E-08 3.67515E-05 3.17471E-05
 -1       289 8.52425E-06-3.67413E-05 3.12052E-05
 -1       290 8.44873E-06-2.69661E-05 3.52598E-05
 -1       291 8.45527E-06-1.73992E-05 3.88205E-05
 -1       292 8.47222E-06-8.42416E-06 4.09169E-05
 -1       293 8.46824E-06 4.03224E-08 4.15618E-05
 -1       294 8.44030E-06 8.48899E-06 4.08694E-05
 -1       295 8.39843E-06 1.74336E-05 3.87376E-05
 -1       296 8.36559E-06 2.69741E-05 3.51575E-05
 -1       297 8.38995E-06 3.67377E-05 3.10915E-05
 -1       298 1.74172E-05-3.65355E-05 2.90441E-05
 -1       299 1.73165E-05-2.68113E-05 3.31378E-05
 -1       300 1.73718E-05-1.73124E-05 3.66948E-05
 -1       301 1.74302E-05-8.39048E-06 3.87914E-05
 -1       302 1.74431E-05 3.90699E-08 3.94447E-05
 -1       303 1.74020E-05 8.46373E-06 3.87668E-05
 -1       304 1.73162E-05 1.73761E-05 3.66499E-05
 -1       305 1.72303E-05 2.68682E-05 3.30770E-05
 -1       306 1.72906E-05 3.65910E-05 2.89653E-05
 -1       307 2.67417E-05-3.62186E-05 2.54296E-05
 -1       308 2.67118E-05-2.66244E-05 2.95650E-05
 -1       309 2.68658E-05-1.72280E-05 3.31154E-05
 -1       310 2.69823E-05-8.36088E-06 3.52127E-05
 -1       311 2.70129E-05 4.69430E-08 3.58741E-05
 -1       312 2.69573E-05 8.45384E-06 3.52051E-05
 -1       313 2.68132E-05 1.73192E-05 3.30996E-05
 -1       314 2.66274E-05 2.67152E-05 2.95373E-05
 -1       315 2.66239E-05 3.63099E-05 2.53790E-05
 -1       316 3.61621E-05-3.60439E-05 2.11696E-05
 -1       317 3.63063E-05-2.66226E-05 2.54004E-05
 -1       318 3.65896E-05-1.72942E-05 2.89995E-05
 -1       319 3.67518E-05-8.39792E-06 3.11454E-05
 -1       320 3.67976E-05 5.92053E-08 3.18272E-05
 -1       321 3.67266E-05 8.51660E-06 3.11522E-05
 -1       322 3.65364E-05 1.74138E-05 2.90105E-05
 -1       323 3.62218E-05 2.67433E-05 2.54084E-05
 -1       324 3.60462E-05 3.61647E-05 2.11558E-05
 -1       325-3.95399E-05-3.94941E-05 3.27438E-05
 -1       326-3.96342E-05-2.97403E-05 3.62155E-05
 -1       327-3.97422E-05-1.97030E-05 3.96136E-05
 -1       328-3.97033E-05-9.61712E-06 4.18680E-05
 -1       329-3.95170E-05 3.31528E-07 4.25433E-05
 -1       330-3.93034E-05 1.01259E-05 4.16010E-05
 -1       331-3.91637E-05 1.98613E-05 3.91999E-05
 -1       332-3.91173E-05 2.95793E-05 3.57894E-05
 -1       333-3.91206E-05 3.91739E-05 3.23417E-05
 -1       334-2.97921E-05-3.95155E-05 3.62106E-05
 -1       335-2.98150E-05-2.97241E-05 3.95913E-05
 -1       336-2.98791E-05-1.97167E-05 4.28945E-05
 -1       337-2.98688E-05-9.69940E-06 4.50780E-05
 -1       338-2.97698E-05 2.06663E-07 4.57241E-05
 -1       339-2.96383E-05 1.00177E-05 4.48028E-05
 -1       340-2.95367E-05 1.98100E-05 4.24675E-05
 -1       341-2.94916E-05 2.95857E-05 3.91503E-05
 -1       342-2.95199E-05 3.92384E-05 3.57925E-05
 -1       343-1.98209E-05-3.95796E-05 3.96050E-05
 -1       344-1.98226E-05-2.97802E-05 4.28893E-05
 -1       345-1.98493E-05-1.97644E-05 4.61935E-05
 -1       346-1.98565E-05-9.74810E-06 4.83862E-05
 -1       347-1.98283E-05 1.57147E-07 4.90412E-05
 -1       348-1.97757E-05 9.98215E-06 4.81264E-05
 -1       349-1.97238E-05 1.98101E-05 4.57898E-05
 -1       350-1.97008E-05 2.96354E-05 4.24708E-05
 -1       351-1.97370E-05 3.93232E-05 3.92055E-05
 -1       352-9.83130E-06-3.95921E-05 4.18973E-05
 -1       353-9.84560E-06-2.98049E-05 4.51076E-05
 -1       354-9.85790E-06-1.97985E-05 4.84150E-05
 -1       355-9.87322E-06-9.78983E-06 5.06377E-05
 -1       356-9.88351E-06 1.18650E-07 5.13272E-05
 -1       357-9.88190E-06 9.96554E-06 5.04345E-05
 -1       358-9.87183E-06 1.98336E-05 4.80959E-05
 -1       359-9.87058E-06 2.96997E-05 4.47701E-05
 -1       360-9.90975E-06 3.94087E-05 4.15682E-05
 -1       361 8.39612E-08-3.95537E-05 4.26596E-05
 -1       362 5.17425E-08-2.97849E-05 4.58381E-05
 -1       363 3.81805E-08-1.98035E-05 4.91448E-05
 -1       364 2.22060E-08-9.81675E-06 5.13920E-05
 -1       365-3.26374E-10 8.62562E-08 5.21205E-05
 -1       366-2.28777E-08 9.95021E-06 5.12615E-05
 -1       367-3.88283E-08 1.98521E-05 4.89354E-05
 -1       368-5.22913E-08 2.97513E-05 4.56071E-05
 -1       369-8.44553E-08 3.94745E-05 4.24242E-05
 -1       370 9.96599E-06-3.94933E-05 4.18097E-05
 -1       371 9.92308E-06-2.97344E-05 4.50083E-05
 -1       372 9.91016E-06-1.97799E-05 4.83135E-05
 -1       373 9.90227E-06-9.82163E-06 5.05706E-05
 -1       374 9.88299E-06 6.55171E-08 5.13268E-05
 -1       375 9.85188E-06 9.93334E-06 5.05009E-05
 -1       376 9.81857E-06 1.98514E-05 4.81974E-05
 -1       377 9.79188E-06 2.97695E-05 4.48705E-05
 -1       378 9.77381E-06 3.95077E-05 4.16578E-05
 -1       379 1.98706E-05-3.94122E-05 3.94535E-05
 -1       380 1.98280E-05-2.96647E-05 4.27179E-05
 -1       381 1.98305E-05-1.97381E-05 4.60192E-05
 -1       382 1.98382E-05-9.80954E-06 4.82709E-05
 -1       383 1.98272E-05 5.85463E-08 4.90403E-05
 -1       384 1.97921E-05 9.91990E-06 4.82402E-05
 -1       385 1.97412E-05 1.98344E-05 4.59641E-05
 -1       386 1.96946E-05 2.97494E-05 4.26442E-05
 -1       387 1.96876E-05 3.94907E-05 3.93607E-05
 -1       388 2.97425E-05-3.93163E-05 3.60303E-05
 -1       389 2.97178E-05-2.95929E-05 3.93877E-05
 -1       390 2.97494E-05-1.97000E-05 4.26900E-05
 -1       391 2.97727E-05-9.79451E-06 4.49439E-05
 -1       392 2.97674E-05 6.40391E-08 4.57231E-05
 -1       393 2.97302E-05 9.92108E-06 4.49354E-05
 -1       394 2.96639E-05 1.98233E-05 4.26723E-05
 -1       395 2.95884E-05 2.97140E-05 3.93566E-05
 -1       396 2.95712E-05 3.94362E-05 3.59780E-05
 -1       397 3.94159E-05-3.92535E-05 3.25513E-05
 -1       398 3.94400E-05-2.95779E-05 3.60001E-05
 -1       399 3.94936E-05-1.96995E-05 3.94010E-05
 -1       400 3.95211E-05-9.78986E-06 4.17301E-05
 -1       401 3.95134E-05 8.04590E-08 4.25428E-05
 -1       402 3.94788E-05 9.95039E-06 4.17384E-05
 -1       403 3.94084E-05 1.98591E-05 3.94138E-05
 -1       404 3.93118E-05 2.97362E-05 3.60084E-05
 -1       405 3.92476E-05 3.94106E-05 3.25402E-05
 -1       406-4.25843E-05-4.25487E-05 4.29536E-05
 -1       407-4.25815E-05-3.25943E-05 4.62431E-05
 -1       408-4.24897E-05-2.20216E-05 4.94830E-05
 -1       409-4.23064E-05-1.08518E-05 5.16784E-05
 -1       410-4.20807E-05 4.77418E-07 5.22795E-05
 -1       411-4.19215E-05 1.15922E-05 5.12486E-05
 -1       412-4.19291E-05 2.22833E-05 4.88371E-05
 -1       413-4.20732E-05 3.24443E-05 4.56160E-05
 -1       414-4.21671E-05 4.22129E-05 4.23879E-05
 -1       415-3.26414E-05-4.24752E-05 4.62112E-05
 -1       416-3.26550E-05-3.25698E-05 4.94114E-05
 -1       417-3.26182E-05-2.20572E-05 5.25510E-05
 -1       418-3.25392E-05-1.09517E-05 5.46648E-05
 -1       419-3.24200E-05 3.49931E-07 5.52310E-05
 -1       420-3.23176E-05 1.14961E-05 5.42213E-05
 -1       421-3.22905E-05 2.22482E-05 5.18895E-05
 -1       422-3.23483E-05 3.24389E-05 4.87780E-05
 -1       423-3.23871E-05 4.21842E-05 4.56452E-05
 -1       424-2.21628E-05-4.23417E-05 4.94198E-05
 -1       425-2.21835E-05-3.25238E-05 5.25135E-05
 -1       426-2.21678E-05-2.20661E-05 5.56338E-05
 -1       427-2.21589E-05-1.09961E-05 5.77525E-05
 -1       428-2.21389E-05 2.85439E-07 5.83311E-05
 -1       429-2.21111E-05 1.14326E-05 5.73365E-05
 -1       430-2.20943E-05 2.21994E-05 5.50145E-05
 -1       431-2.21166E-05 3.23866E-05 5.19231E-05
 -1       432-2.21335E-05 4.20759E-05 4.88944E-05
 -1       433-1.11369E-05-4.22045E-05 5.16690E-05
 -1       434-1.11647E-05-3.24741E-05 5.46690E-05
 -1       435-1.11619E-05-2.20816E-05 5.77770E-05
 -1       436-1.11860E-05-1.10522E-05 5.99321E-05
 -1       437-1.12232E-05 2.18873E-07 6.05688E-05
 -1       438-1.12521E-05 1.13875E-05 5.96204E-05
 -1       439-1.12650E-05 2.21899E-05 5.73086E-05
 -1       440-1.12814E-05 3.23814E-05 5.42113E-05
 -1       441-1.13045E-05 4.20187E-05 5.12511E-05
 -1       442 1.32262E-07-4.21140E-05 5.24204E-05
 -1       443 1.00810E-07-3.24258E-05 5.53760E-05
 -1       444 8.51043E-08-2.20863E-05 5.84717E-05
 -1       445 5.22573E-08-1.11026E-05 6.06610E-05
 -1       446-7.66133E-11 1.53082E-07 6.13631E-05
 -1       447-5.25159E-08 1.13448E-05 6.04750E-05
 -1       448-8.56706E-08 2.21916E-05 5.81863E-05
 -1       449-1.01777E-07 3.24113E-05 5.50806E-05
 -1       450-1.33278E-07 4.20420E-05 5.21332E-05
 -1       451 1.13569E-05-4.20964E-05 5.15496E-05
 -1       452 1.13283E-05-3.23978E-05 5.45225E-05
 -1       453 1.12957E-05-2.20785E-05 5.76142E-05
 -1       454 1.12670E-05-1.11308E-05 5.98202E-05
 -1       455 1.12231E-05 1.04191E-07 6.05679E-05
 -1       456 1.11708E-05 1.13081E-05 5.97309E-05
 -1       457 1.11303E-05 2.21913E-05 5.74710E-05
 -1       458 1.11157E-05 3.24558E-05 5.43591E-05
 -1       459 1.10821E-05 4.21257E-05 5.13733E-05
 -1       460 2.22706E-05-4.21588E-05 4.92103E-05
 -1       461 2.22456E-05-3.23994E-05 5.22601E-05
 -1       462 2.21999E-05-2.20681E-05 5.53540E-05
 -1       463 2.21722E-05-1.11399E-05 5.75600E-05
 -1       464 2.21380E-05 7.88356E-08 5.83292E-05
 -1       465 2.20963E-05 1.12870E-05 5.75254E-05
 -1       466 2.20605E-05 2.21934E-05 5.52931E-05
 -1       467 2.20530E-05 3.25072E-05 5.21791E-05
 -1       468 2.20251E-05 4.22566E-05 4.91091E-05
 -1       469 3.26256E-05-4.22567E-05 4.59580E-05
 -1       470 3.25888E-05-3.24301E-05 4.91127E-05
 -1       471 3.25137E-05-2.20779E-05 5.22289E-05
 -1       472 3.24575E-05-1.11491E-05 5.44453E-05
 -1       473 3.24174E-05 7.42653E-08 5.52288E-05
 -1       474 3.23946E-05 1.12959E-05 5.44368E-05
 -1       475 3.23918E-05 2.22216E-05 5.22106E-05
 -1       476 3.24133E-05 3.25729E-05 4.90801E-05
 -1       477 3.24037E-05 4.23984E-05 4.59050E-05
 -1       478 4.24849E-05-4.22864E-05 4.26796E-05
 -1       479 4.24127E-05-3.24243E-05 4.59278E-05
 -1       480 4.22662E-05-2.20582E-05 4.91535E-05
 -1       481 4.21404E-05-1.11302E-05 5.14576E-05
 -1       482 4.20768E-05 8.97443E-08 5.22777E-05
 -1       483 4.20801E-05 1.13097E-05 5.14663E-05
 -1       484 4.21480E-05 2.22383E-05 4.91665E-05
 -1       485 4.22414E-05 3.26058E-05 4.59355E-05
 -3
    1PSTEP                         2           1           1          
  100CL  101 1.000000000         486                     0    1           1
 -4  STRESS      6    1
 -5  SXX         1    4    1    1
 -5  SYY         1    4    2    2
 -5  SZZ         1    4    3    3
 -5  SXY         1    4    1    2
 -5  SYZ         1    4    2    3
 -5  SZX         1    4    3    1
 -1         1-5.15059E+00-5.15059E+00-5.97208E+00-1.91683E-07-2.86502E+00-2.86416E+00
 -1         2-4.47890E+00-4.47889E+00-3.27967E+00 3.90966E-09-1.58950E+00-2.85373E+00
 -1         3-4.36975E+00-4.36973E+00-2.83747E+00 1.73397E-07-9.11697E-01-2.88365E+00
 -1         4-4.31480E+00-4.31477E+00-2.62612E+00 3.87909E-08-4.15996E-01-2.89042E+00
 -1         5-4.29152E+00-4.29149E+00-2.55645E+00-2.14206E-08 1.19777E-02-2.88531E+00
 -1         6-4.29573E+00-4.29570E+00-2.59672E+00-5.76740E-08 4.32740E-01-2.87378E+00
 -1         7-4.34387E+00-4.34385E+00-2.79771E+00-1.48387E-07 9.13499E-01-2.86002E+00
 -1         8-4.45730E+00-4.45729E+00-3.24671E+00 2.80280E-08 1.57863E+00-2.83276E+00
 -1         9-5.12833E+00-5.12833E+00-5.92617E+00 2.13288E-07 2.84668E+00-2.84735E+00
 -1        10-4.47563E+00-4.47564E+00-3.27226E+00 1.81931E-09-2.85089E+00-1.58903E+00
 -1        11-3.79548E+00-3.79548E+00-5.46066E-01 1.53023E-07-1.58719E+00-1.58865E+00
 -1        12-3.68251E+00-3.68250E+00-8.85804E-02 2.24085E-07-9.05449E-01-1.60043E+00
 -1        13-3.62524E+00-3.62522E+00 1.32084E-01 7.52875E-08-4.15991E-01-1.60905E+00
 -1        14-3.60318E+00-3.60316E+00 1.96883E-01-2.59407E-08 6.31133E-03-1.60753E+00
 -1        15-3.61093E+00-3.61091E+00 1.42457E-01-1.03176E-07 4.24161E-01-1.59976E+00
 -1        16-3.66387E+00-3.66386E+00-7.77615E-02-2.06923E-07 9.04395E-01-1.58679E+00
 -1        17-3.78105E+00-3.78105E+00-5.41779E-01-1.21312E-07 1.57751E+00-1.57596E+00
 -1        18-4.46030E+00-4.46031E+00-3.25408E+00 2.59271E-08 2.83559E+00-1.57891E+00
 -1        19-4.36282E+00-4.36285E+00-2.82299E+00 1.67268E-07-2.87878E+00-9.14424E-01
 -1        20-3.67912E+00-3.67913E+00-8.30333E-02 2.19917E-07-1.59849E+00-9.07718E-01
 -1        21-3.56876E+00-3.56876E+00 3.63557E-01 2.16461E-07-9.12354E-01-9.13697E-01
 -1        22-3.51314E+00-3.51314E+00 5.78530E-01 1.14533E-07-4.19099E-01-9.19043E-01
 -1        23-3.49202E+00-3.49201E+00 6.41463E-01-9.66228E-09 4.22993E-03-9.19751E-01
 -1        24-3.50014E+00-3.50014E+00 5.87391E-01-1.27071E-07 4.23654E-01-9.15367E-01
 -1        25-3.55228E+00-3.55228E+00 3.71339E-01-2.15833E-07 9.09319E-01-9.07986E-01
 -1        26-3.66712E+00-3.66713E+00-8.32938E-02-2.11348E-07 1.58873E+00-9.02122E-01
 -1        27-4.35050E+00-4.35053E+00-2.81214E+00-1.54619E-07 2.86489E+00-9.10764E-01
 -1        28-4.30903E+00-4.30906E+00-2.61348E+00 4.04338E-08-2.88725E+00-4.23140E-01
 -1        29-3.62179E+00-3.62181E+00 1.39232E-01 7.86941E-08-1.60825E+00-4.20170E-01
 -1        30-3.51215E+00-3.51215E+00 5.81542E-01 1.14425E-07-9.18708E-01-4.21550E-01
 -1        31-3.45798E+00-3.45798E+00 7.93039E-01 7.75077E-08-4.22975E-01-4.24245E-01
 -1        32-3.43908E+00-3.43908E+00 8.53176E-01 1.11820E-08 2.75557E-03-4.25389E-01
 -1        33-3.44898E+00-3.44898E+00 7.98110E-01-6.69852E-08 4.25468E-01-4.24233E-01
 -1        34-3.50113E+00-3.50113E+00 5.84368E-01-1.27248E-07 9.15658E-01-4.21221E-01
 -1        35-3.61435E+00-3.61436E+00 1.35268E-01-9.97915E-08 1.60050E+00-4.19949E-01
 -1        36-4.30143E+00-4.30146E+00-2.60931E+00-5.60133E-08 2.87697E+00-4.25504E-01
 -1        37-4.29246E+00-4.29249E+00-2.55469E+00-1.07717E-08-2.88778E+00 2.74682E-03
 -1        38-3.60413E+00-3.60415E+00 2.00501E-01-1.38232E-08-1.60961E+00 1.25395E-03
 -1        39-3.49404E+00-3.49405E+00 6.42718E-01-8.22267E-09-9.20615E-01 9.64955E-04
 -1        40-3.44090E+00-3.44090E+00 8.52934E-01 8.12039E-09-4.24685E-01 6.60508E-04
 -1        41-3.42474E+00-3.42474E+00 9.10544E-01 1.66456E-08 1.53964E-03-1.95311E-05
 -1        42-3.43726E+00-3.43726E+00 8.53420E-01 8.18215E-09 4.26051E-01-6.98039E-04
 -1        43-3.48998E+00-3.48999E+00 6.40208E-01-8.46460E-09 9.18834E-01-9.94436E-04
 -1        44-3.60218E+00-3.60220E+00 1.93310E-01-1.41590E-08 1.60540E+00-1.27790E-03
 -1        45-4.29047E+00-4.29049E+00-2.55796E+00-1.10478E-08 2.88278E+00-2.77842E-03
 -1        46-4.30442E+00-4.30445E+00-2.60721E+00-5.36690E-08-2.88238E+00 4.27082E-01
 -1        47-3.61741E+00-3.61742E+00 1.41306E-01-9.77066E-08-1.60480E+00 4.21530E-01
 -1        48-3.50648E+00-3.50648E+00 5.85476E-01-1.27738E-07-9.17198E-01 4.22329E-01
 -1        49-3.45357E+00-3.45357E+00 7.96626E-01-6.90732E-08-4.23587E-01 4.24782E-01
 -1        50-3.43908E+00-3.43908E+00 8.53182E-01 8.84356E-09 9.69465E-04 4.25357E-01
 -1        51-3.45340E+00-3.45340E+00 7.94487E-01 7.54358E-08 4.24833E-01 4.23619E-01
 -1        52-3.50682E+00-3.50682E+00 5.80364E-01 1.13618E-07 9.17178E-01 4.20359E-01
 -1        53-3.61873E+00-3.61874E+00 1.33213E-01 8.02947E-08 1.60400E+00 4.18544E-01
 -1        54-4.30603E+00-4.30606E+00-2.61554E+00 4.24645E-08 2.88186E+00 4.21517E-01
 -1        55-4.35557E+00-4.35559E+00-2.81272E+00-1.61263E-07-2.87086E+00 9.14822E-01
 -1        56-3.67238E+00-3.67240E+00-7.99926E-02-2.18369E-07-1.59284E+00 9.06239E-01
 -1        57-3.56000E+00-3.56000E+00 3.69553E-01-2.21200E-07-9.09994E-01 9.11567E-01
 -1        58-3.50638E+00-3.50637E+00 5.84022E-01-1.23594E-07-4.20332E-01 9.17530E-01
 -1        59-3.49201E+00-3.49200E+00 6.41487E-01-1.05170E-09 1.11374E-03 9.19721E-01
 -1        60-3.50692E+00-3.50692E+00 5.81841E-01 1.17852E-07 4.22372E-01 9.16833E-01
 -1        61-3.56108E+00-3.56108E+00 3.65213E-01 2.10942E-07 9.11690E-01 9.10106E-01
 -1        62-3.67399E+00-3.67400E+00-8.63945E-02 2.12552E-07 1.59444E+00 9.03582E-01
 -1        63-4.35802E+00-4.35804E+00-2.82253E+00 1.60489E-07 2.87294E+00 9.10276E-01
 -1        64-4.46710E+00-4.46711E+00-3.25880E+00 1.29167E-08-2.84163E+00 1.58582E+00
 -1        65-3.78797E+00-3.78797E+00-5.42283E-01-1.37605E-07-1.58079E+00 1.58348E+00
 -1        66-3.67297E+00-3.67295E+00-8.22671E-02-2.18723E-07-9.03315E-01 1.59421E+00
 -1        67-3.61797E+00-3.61795E+00 1.37726E-01-9.36939E-08-4.18400E-01 1.60463E+00
 -1        68-3.60316E+00-3.60314E+00 1.96947E-01-4.78121E-09 1.66263E-03 1.60750E+00
 -1        69-3.61819E+00-3.61817E+00 1.36848E-01 8.43968E-08 4.21687E-01 1.60416E+00
 -1        70-3.67342E+00-3.67341E+00-8.40931E-02 2.12208E-07 9.06515E-01 1.59306E+00
 -1        71-3.78881E+00-3.78881E+00-5.45636E-01 1.36823E-07 1.58393E+00 1.58123E+00
 -1        72-4.46936E+00-4.46937E+00-3.26780E+00-1.09799E-08 2.84508E+00 1.58224E+00
 -1        73-5.13932E+00-5.13932E+00-5.94759E+00 2.03375E-07-2.85375E+00 2.85744E+00
 -1        74-4.46852E+00-4.46851E+00-3.26442E+00 1.21778E-08-1.58188E+00 2.84441E+00
 -1        75-4.35705E+00-4.35703E+00-2.81856E+00-1.63148E-07-9.10356E-01 2.87247E+00
 -1        76-4.30537E+00-4.30534E+00-2.61182E+00-5.22258E-08-4.22142E-01 2.88235E+00
 -1        77-4.29148E+00-4.29145E+00-2.55627E+00-4.63034E-09 2.14536E-03 2.88528E+00
 -1        78-4.30512E+00-4.30509E+00-2.61083E+00 4.39602E-08 4.26472E-01 2.88188E+00
 -1        79-4.35657E+00-4.35654E+00-2.81662E+00 1.58607E-07 9.14747E-01 2.87132E+00
 -1        80-4.46795E+00-4.46794E+00-3.26215E+00-1.17168E-08 1.58619E+00 2.84228E+00
 -1        81-5.14017E+00-5.14017E+00-5.95102E+00-2.01363E-07 2.85807E+00 2.85439E+00
 -1        82-2.81409E-01-2.80646E-01-1.78274E+00 2.45572E-02-9.36841E-01-9.35090E-01
 -1        83-2.62831E-01-8.39657E-01-1.00035E+00-7.43868E-03-7.93202E-01-9.50068E-01
 -1        84-3.33245E-01-1.72614E+00-6.73730E-01-1.20992E-02-7.14843E-01-9.67880E-01
 -1        85-3.56568E-01-1.99560E+00-5.13778E-01-8.21422E-04-3.38836E-01-9.74746E-01
 -1        86-3.58870E-01-2.06565E+00-4.52370E-01 2.65661E-03 1.36236E-02-9.72219E-01
 -1        87-3.55969E-01-2.00244E+00-4.96740E-01 4.06413E-03 3.58118E-01-9.65244E-01
 -1        88-3.31703E-01-1.73223E+00-6.51583E-01 1.14061E-02 7.17162E-01-9.54820E-01
 -1        89-2.61473E-01-8.41866E-01-9.84276E-01 5.22114E-03 7.85401E-01-9.39581E-01
 -1        90-2.79100E-01-2.79860E-01-1.76469E+00-2.56783E-02 9.26946E-01-9.28615E-01
 -1        91-8.40992E-01-2.63351E-01-9.94860E-01-6.49977E-03-9.48615E-01-7.91843E-01
 -1        92-7.92906E-01-7.93474E-01-1.92103E-01-1.01989E-02-7.81084E-01-7.81755E-01
 -1        93-8.77731E-01-1.67646E+00 1.32950E-01-1.05277E-02-7.05293E-01-7.94943E-01
 -1        94-8.97433E-01-1.95703E+00 2.91454E-01-5.09851E-03-3.38123E-01-8.00949E-01
 -1        95-8.97765E-01-2.02314E+00 3.50558E-01 7.70084E-04 5.01293E-03-8.00254E-01
 -1        96-8.94084E-01-1.95439E+00 3.02283E-01 5.82379E-03 3.44329E-01-7.94754E-01
 -1        97-8.73875E-01-1.67254E+00 1.44272E-01 9.80916E-03 7.03294E-01-7.86035E-01
 -1        98-7.91728E-01-7.91169E-01-1.88607E-01 8.99347E-03 7.74602E-01-7.73947E-01
 -1        99-8.40705E-01-2.61146E-01-9.89810E-01 6.15566E-03 9.41007E-01-7.86644E-01
 -1       100-1.72863E+00-3.33987E-01-6.62699E-01-1.14726E-02-9.65211E-01-7.17317E-01
 -1       101-1.67571E+00-8.77792E-01 1.38559E-01-1.01662E-02-7.94137E-01-7.07049E-01
 -1       102-1.78293E+00-1.78242E+00 4.53132E-01-1.22921E-02-7.14050E-01-7.14829E-01
 -1       103-1.79888E+00-2.06710E+00 6.09402E-01-6.51922E-03-3.42258E-01-7.20490E-01
 -1       104-1.79730E+00-2.13669E+00 6.66767E-01 6.02697E-05 3.16405E-03-7.20939E-01
 -1       105-1.79282E+00-2.06325E+00 6.18884E-01 6.53609E-03 3.45197E-01-7.16850E-01
 -1       106-1.77608E+00-1.77657E+00 4.62035E-01 1.22536E-02 7.09918E-01-7.09159E-01
 -1       107-1.67336E+00-8.73817E-01 1.38679E-01 1.01034E-02 7.86761E-01-7.01489E-01
 -1       108-1.72984E+00-3.30965E-01-6.62516E-01 1.20489E-02 9.57439E-01-7.14502E-01
 -1       109-1.99795E+00-3.57165E-01-5.03211E-01-1.53107E-03-9.72905E-01-3.47035E-01
 -1       110-1.95648E+00-8.96931E-01 2.98714E-01-4.76417E-03-8.00776E-01-3.41782E-01
 -1       111-2.06816E+00-1.79755E+00 6.12383E-01-6.16816E-03-7.20614E-01-3.44210E-01
 -1       112-2.08714E+00-2.08538E+00 7.66189E-01-4.71270E-03-3.45919E-01-3.46726E-01
 -1       113-2.08526E+00-2.15655E+00 8.21267E-01-1.33925E-03 1.90160E-03-3.47616E-01
 -1       114-2.08151E+00-2.08328E+00 7.71584E-01 3.28259E-03 3.47122E-01-3.46348E-01
 -1       115-2.06221E+00-1.79417E+00 6.15910E-01 6.89919E-03 7.16689E-01-3.43257E-01
 -1       116-1.95501E+00-8.94564E-01 2.95038E-01 6.19135E-03 7.94852E-01-3.40605E-01
 -1       117-2.00019E+00-3.55266E-01-5.07140E-01 3.38815E-03 9.67029E-01-3.49739E-01
 -1       118-2.06548E+00-3.59408E-01-4.48655E-01 9.43695E-04-9.73706E-01 2.87048E-03
 -1       119-2.02350E+00-8.98063E-01 3.54056E-01 8.35921E-04-8.01912E-01 5.78034E-04
 -1       120-2.13866E+00-1.79761E+00 6.67816E-01 4.58330E-04-7.22121E-01 4.29664E-04
 -1       121-2.15853E+00-2.08541E+00 8.20878E-01-7.98438E-04-3.47336E-01 3.49597E-04
 -1       122-2.15787E+00-2.15788E+00 8.73483E-01-1.57232E-03 1.08058E-03-1.68954E-05
 -1       123-2.15458E+00-2.08514E+00 8.21639E-01-8.04755E-04 3.47858E-01-3.88445E-04
 -1       124-2.13477E+00-1.79701E+00 6.65730E-01 4.70128E-04 7.19725E-01-4.67703E-04
 -1       125-2.02290E+00-8.97478E-01 3.47117E-01 8.61565E-04 7.98554E-01-5.94607E-04
 -1       126-2.06606E+00-3.58359E-01-4.55885E-01 9.44355E-04 9.70675E-01-2.89113E-03
 -1       127-1.99951E+00-3.56476E-01-5.00850E-01 2.90598E-03-9.70306E-01 3.51381E-01
 -1       128-1.95577E+00-8.95595E-01 3.00720E-01 6.00920E-03-7.98289E-01 3.42212E-01
 -1       129-2.06610E+00-1.79549E+00 6.16430E-01 6.93630E-03-7.18880E-01 3.44333E-01
 -1       130-2.08534E+00-2.08404E+00 7.69764E-01 3.69034E-03-3.46101E-01 3.46922E-01
 -1       131-2.08526E+00-2.15658E+00 8.21265E-01-7.94406E-04 7.83663E-04 3.47588E-01
 -1       132-2.08334E+00-2.08467E+00 7.67957E-01-4.33806E-03 3.46899E-01 3.46060E-01
 -1       133-2.06433E+00-1.79626E+00 6.11796E-01-6.10935E-03 7.18439E-01 3.43024E-01
 -1       134-1.95574E+00-8.95943E-01 2.93032E-01-4.89730E-03 7.97398E-01 3.40139E-01
 -1       135-1.99867E+00-3.56054E-01-5.09499E-01-1.94639E-03 9.69681E-01 3.45371E-01
 -1       136-1.72968E+00-3.32417E-01-6.58553E-01 1.17930E-02-9.60980E-01 7.18384E-01
 -1       137-1.67448E+00-8.75584E-01 1.41605E-01 1.03782E-02-7.90023E-01 7.05323E-01
 -1       138-1.77972E+00-1.77910E+00 4.59550E-01 1.25870E-02-7.11290E-01 7.12539E-01
 -1       139-1.79617E+00-2.06490E+00 6.15122E-01 6.67102E-03-3.42798E-01 7.18940E-01
 -1       140-1.79730E+00-2.13674E+00 6.66790E-01-1.73302E-06 9.87102E-04 7.20921E-01
 -1       141-1.79557E+00-2.06554E+00 6.13125E-01-6.38055E-03 3.44569E-01 7.18370E-01
 -1       142-1.77935E+00-1.77998E+00 4.55513E-01-1.19569E-02 7.12697E-01 7.11441E-01
 -1       143-1.67463E+00-8.76086E-01 1.35567E-01-9.95380E-03 7.90987E-01 7.03251E-01
 -1       144-1.72877E+00-3.32550E-01-6.66702E-01-1.16977E-02 9.61798E-01 7.13490E-01
 -1       145-8.40986E-01-2.61946E-01-9.89126E-01 6.21031E-03-9.44104E-01 7.90873E-01
 -1       146-7.92296E-01-7.92160E-01-1.88812E-01 9.67283E-03-7.76772E-01 7.78545E-01
 -1       147-8.75786E-01-1.67428E+00 1.39492E-01 1.03930E-02-7.02748E-01 7.90767E-01
 -1       148-8.95786E-01-1.95560E+00 2.97334E-01 5.74069E-03-3.39547E-01 7.97928E-01
 -1       149-8.97759E-01-2.02320E+00 3.50630E-01 2.84333E-04 1.65404E-03 8.00233E-01
 -1       150-8.95747E-01-1.95592E+00 2.96469E-01-5.17100E-03 3.42808E-01 7.97755E-01
 -1       151-8.75882E-01-1.67483E+00 1.37704E-01-9.94056E-03 7.05828E-01 7.90238E-01
 -1       152-7.92360E-01-7.92497E-01-1.91949E-01-9.53837E-03 7.79001E-01 7.77227E-01
 -1       153-8.40557E-01-2.62383E-01-9.95527E-01-6.41652E-03 9.45648E-01 7.87733E-01
 -1       154-2.80617E-01-2.80103E-01-1.77269E+00-2.51530E-02-9.30561E-01 9.32963E-01
 -1       155-2.62474E-01-8.40927E-01-9.92988E-01 6.42095E-03-7.87396E-01 9.45275E-01
 -1       156-3.32668E-01-1.72940E+00-6.63349E-01 1.19242E-02-7.13454E-01 9.61539E-01
 -1       157-3.56379E-01-1.99927E+00-5.05563E-01 2.66236E-03-3.45879E-01 9.70026E-01
 -1       158-3.58867E-01-2.06576E+00-4.52201E-01 2.49131E-04 2.48687E-03 9.72189E-01
 -1       159-3.56149E-01-1.99893E+00-5.04700E-01-2.19439E-03 3.50880E-01 9.69957E-01
 -1       160-3.32297E-01-1.72906E+00-6.61851E-01-1.15661E-02 7.18415E-01 9.61235E-01
 -1       161-2.61853E-01-8.40617E-01-9.91640E-01-6.20492E-03 7.91205E-01 9.44475E-01
 -1       162-2.79782E-01-2.80298E-01-1.77470E+00 2.51023E-02 9.33287E-01 9.30891E-01
 -1       163-1.01608E-01-1.00762E-01 7.03822E-01-1.04190E-01-9.03043E-02-8.92098E-02
 -1       164-1.28117E-01-2.84882E-01 8.26339E-02-4.53585E-02-2.90464E-01-1.00193E-01
 -1       165-6.84559E-02-4.99181E-01 3.85907E-01-2.40268E-02-3.20042E-01-1.05427E-01
 -1       166-7.32180E-02-8.06108E-01 5.52287E-01-6.24253E-03-1.90851E-01-1.07976E-01
 -1       167-7.73850E-02-9.06961E-01 6.13867E-01 6.55278E-03 1.07620E-02-1.05470E-01
 -1       168-7.58384E-02-8.21463E-01 5.59919E-01 1.48588E-02 2.06248E-01-1.00223E-01
 -1       169-7.15557E-02-5.16945E-01 3.93009E-01 2.36100E-02 3.22083E-01-9.47707E-02
 -1       170-1.30096E-01-2.92967E-01 8.14305E-02 4.05065E-02 2.84755E-01-9.21970E-02
 -1       171-1.02505E-01-1.03275E-01 6.90665E-01 9.93290E-02 8.36338E-02-8.45752E-02
 -1       172-2.87460E-01-1.30132E-01 8.61260E-02-4.37350E-02-9.88721E-02-2.89568E-01
 -1       173-4.04738E-01-4.06426E-01-6.01057E-01-2.33909E-02-2.86156E-01-2.86824E-01
 -1       174-3.71539E-01-7.11227E-01-3.34808E-01-2.14636E-02-3.19519E-01-2.92713E-01
 -1       175-3.86952E-01-1.04066E+00-1.86977E-01-7.91702E-03-1.94343E-01-2.94060E-01
 -1       176-3.88436E-01-1.13489E+00-1.25789E-01 2.96994E-03 3.12366E-03-2.92501E-01
 -1       177-3.81775E-01-1.03437E+00-1.69817E-01 1.17710E-02 1.98062E-01-2.89036E-01
 -1       178-3.65805E-01-7.03818E-01-3.15571E-01 2.12062E-02 3.17563E-01-2.85488E-01
 -1       179-4.03234E-01-4.01511E-01-5.94071E-01 2.13863E-02 2.81429E-01-2.80711E-01
 -1       180-2.90514E-01-1.28036E-01 7.79795E-02 4.21455E-02 9.35570E-02-2.85387E-01
 -1       181-5.04077E-01-7.11536E-02 3.94638E-01-2.31665E-02-1.03033E-01-3.22271E-01
 -1       182-7.08739E-01-3.72122E-01-3.27613E-01-2.09855E-02-2.92029E-01-3.20940E-01
 -1       183-6.92861E-01-6.92720E-01-6.14634E-02-1.98093E-02-3.23143E-01-3.23704E-01
 -1       184-7.16815E-01-1.04138E+00 8.33708E-02-1.01267E-02-1.97028E-01-3.25029E-01
 -1       185-7.17081E-01-1.14024E+00 1.42990E-01 5.24238E-04 1.58613E-03-3.24113E-01
 -1       186-7.07370E-01-1.03357E+00 9.87958E-02 1.09782E-02 1.98089E-01-3.21865E-01
 -1       187-6.82556E-01-6.82738E-01-4.46469E-02 2.04401E-02 3.19270E-01-3.18638E-01
 -1       188-7.06318E-01-3.65197E-01-3.22681E-01 2.16517E-02 2.86182E-01-3.15976E-01
 -1       189-5.12187E-01-6.87316E-02 3.84441E-01 2.44400E-02 9.70811E-02-3.19440E-01
 -1       190-8.10414E-01-7.48464E-02 5.62268E-01-8.59380E-03-1.06310E-01-1.98062E-01
 -1       191-1.03911E+00-3.86347E-01-1.78104E-01-8.20220E-03-2.93882E-01-1.97180E-01
 -1       192-1.04321E+00-7.14996E-01 8.67697E-02-9.82447E-03-3.25219E-01-1.98322E-01
 -1       193-1.07242E+00-1.06937E+00 2.30979E-01-7.16408E-03-1.98364E-01-1.98738E-01
 -1       194-1.07331E+00-1.17252E+00 2.87633E-01-2.19829E-03 7.75546E-04-1.98641E-01
 -1       195-1.06183E+00-1.06487E+00 2.40217E-01 4.63859E-03 1.98364E-01-1.97987E-01
 -1       196-1.03172E+00-7.09207E-01 9.54712E-02 1.12907E-02 3.21706E-01-1.96772E-01
 -1       197-1.03594E+00-3.82375E-01-1.78601E-01 1.15206E-02 2.89191E-01-1.95188E-01
 -1       198-8.17403E-01-7.41645E-02 5.50041E-01 1.24876E-02 1.01730E-01-1.98942E-01
 -1       199-9.06094E-01-7.75494E-02 6.19813E-01 1.97904E-03-1.06613E-01 1.65677E-03
 -1       200-1.13600E+00-3.89013E-01-1.23053E-01 1.74199E-03-2.93671E-01-7.00155E-05
 -1       201-1.14433E+00-7.17872E-01 1.42796E-01 7.62942E-04-3.25119E-01-9.18151E-05
 -1       202-1.17638E+00-1.07390E+00 2.86329E-01-1.49898E-03-1.98762E-01 1.49527E-05
 -1       203-1.17908E+00-1.17909E+00 3.39841E-01-2.66744E-03 3.69043E-04-1.19003E-05
 -1       204-1.16871E+00-1.07275E+00 2.88922E-01-1.51352E-03 1.98522E-01-3.33855E-05
 -1       205-1.13620E+00-7.16321E-01 1.43230E-01 7.79746E-04 3.23119E-01 8.91662E-05
 -1       206-1.13385E+00-3.87899E-01-1.28445E-01 1.77477E-03 2.91267E-01 8.08940E-05
 -1       207-9.08184E-01-7.73088E-02 6.07987E-01 2.00516E-03 1.04198E-01-1.65927E-03
 -1       208-8.14651E-01-7.47292E-02 5.60914E-01 1.16964E-02-1.04353E-01 2.00615E-01
 -1       209-1.03800E+00-3.84305E-01-1.74908E-01 1.09825E-02-2.91727E-01 1.96646E-01
 -1       210-1.03952E+00-7.11928E-01 9.28851E-02 1.11394E-02-3.23554E-01 1.97670E-01
 -1       211-1.06918E+00-1.06699E+00 2.36105E-01 5.07995E-03-1.98128E-01 1.98448E-01
 -1       212-1.07331E+00-1.17258E+00 2.87618E-01-1.71304E-03 4.65343E-04 1.98634E-01
 -1       213-1.06515E+00-1.06737E+00 2.35028E-01-6.79890E-03 1.98606E-01 1.98272E-01
 -1       214-1.03555E+00-7.12359E-01 8.92668E-02-9.96078E-03 3.23370E-01 1.97439E-01
 -1       215-1.03713E+00-3.84490E-01-1.81836E-01-8.66088E-03 2.91323E-01 1.95737E-01
 -1       216-8.13134E-01-7.43256E-02 5.51458E-01-9.29737E-03 1.03714E-01 1.96392E-01
 -1       217-5.09132E-01-7.00798E-02 3.92732E-01 2.41985E-02-9.98149E-02 3.22974E-01
 -1       218-7.07665E-01-3.68493E-01-3.22490E-01 2.18473E-02-2.88589E-01 3.19202E-01
 -1       219-6.88437E-01-6.87413E-01-5.13265E-02 2.04906E-02-3.20435E-01 3.21422E-01
 -1       220-7.12898E-01-1.03724E+00 9.19264E-02 1.03861E-02-1.96677E-01 3.23550E-01
 -1       221-7.17089E-01-1.14032E+00 1.43017E-01-5.24201E-04 9.39298E-04 3.24116E-01
 -1       222-7.11374E-01-1.03785E+00 9.02430E-02-1.07222E-02 1.98439E-01 3.23366E-01
 -1       223-6.87137E-01-6.88167E-01-5.48789E-02-1.97766E-02 3.21934E-01 3.20940E-01
 -1       224-7.07489E-01-3.68955E-01-3.27945E-01-2.08027E-02 2.89601E-01 3.17783E-01
 -1       225-5.07036E-01-6.98737E-02 3.86343E-01-2.33768E-02 1.00328E-01 3.18928E-01
 -1       226-2.89473E-01-1.29089E-01 8.37197E-02 4.29311E-02-9.56131E-02 2.89013E-01
 -1       227-4.04003E-01-4.03893E-01-5.96286E-01 2.24892E-02-2.82723E-01 2.84333E-01
 -1       228-3.68810E-01-7.07404E-01-3.24417E-01 2.14988E-02-3.16911E-01 2.89269E-01
 -1       229-3.84545E-01-1.03741E+00-1.77970E-01 9.99996E-03-1.94452E-01 2.91560E-01
 -1       230-3.88446E-01-1.13494E+00-1.25709E-01 1.40228E-04 1.76477E-03 2.92470E-01
 -1       231-3.84244E-01-1.03773E+00-1.78725E-01-9.65315E-03 1.97927E-01 2.91486E-01
 -1       232-3.68636E-01-7.07753E-01-3.25995E-01-2.11533E-02 3.20073E-01 2.88917E-01
 -1       233-4.04042E-01-4.04153E-01-5.98985E-01-2.22911E-02 2.84853E-01 2.83243E-01
 -1       234-2.88411E-01-1.29122E-01 8.03818E-02-4.29453E-02 9.68029E-02 2.86087E-01
 -1       235-1.02448E-01-1.02195E-01 6.97473E-01 1.01723E-01-8.56101E-02 8.80155E-02
 -1       236-1.29276E-01-2.89184E-01 8.18854E-02 4.29558E-02-2.85580E-01 9.65584E-02
 -1       237-7.01182E-02-5.08429E-01 3.89076E-01 2.38956E-02-3.18221E-01 1.00189E-01
 -1       238-7.46414E-02-8.14141E-01 5.55871E-01 1.06755E-02-1.95586E-01 1.04054E-01
 -1       239-7.74202E-02-9.07154E-01 6.13977E-01 2.00408E-04 2.93999E-03 1.05403E-01
 -1       240-7.44124E-02-8.13676E-01 5.56583E-01-1.03240E-02 2.01403E-01 1.04011E-01
 -1       241-6.98338E-02-5.07750E-01 3.90046E-01-2.36803E-02 3.23670E-01 9.99520E-02
 -1       242-1.28932E-01-2.88703E-01 8.22380E-02-4.29200E-02 2.89513E-01 9.58573E-02
 -1       243-1.01607E-01-1.01862E-01 6.97173E-01-1.01833E-01 8.82493E-02 8.58487E-02
 -1       244 6.23849E-02 6.27855E-02 7.35570E-01-4.35075E-02 9.96537E-03 9.89371E-03
 -1       245 1.40860E-02-3.76326E-02 3.28225E-01-3.05523E-02 1.26738E-02 1.98148E-02
 -1       246 3.32886E-02-1.11050E-01 3.00924E-01-1.99475E-02-3.80869E-02 3.09816E-02
 -1       247 4.87193E-02-2.16950E-01 4.14372E-01-2.12208E-03-4.01635E-02 3.73340E-02
 -1       248 4.82098E-02-2.83575E-01 4.57586E-01 9.55896E-03 3.73890E-03 4.09172E-02
 -1       249 4.39061E-02-2.36542E-01 4.13776E-01 1.48155E-02 4.60021E-02 4.15882E-02
 -1       250 2.75221E-02-1.33485E-01 2.97080E-01 1.94808E-02 4.00388E-02 3.68162E-02
 -1       251 1.04890E-02-4.75345E-02 3.16425E-01 2.35785E-02-1.33473E-02 2.42055E-02
 -1       252 6.05717E-02 6.01549E-02 7.12447E-01 3.64723E-02-1.22964E-02 1.25939E-02
 -1       253-4.08143E-02 1.02333E-02 3.28105E-01-2.82044E-02 2.12336E-02 1.22339E-02
 -1       254-1.21324E-01-1.24250E-01-1.14841E-01-2.10265E-02 2.04177E-03 7.26121E-04
 -1       255-1.23759E-01-2.45562E-01-1.70899E-01-1.83026E-02-4.99132E-02 8.27993E-03
 -1       256-1.13579E-01-3.71483E-01-7.31870E-02-6.22669E-03-5.02591E-02 1.27975E-02
 -1       257-1.09877E-01-4.27439E-01-2.79117E-02 4.20128E-03-1.07435E-03 1.54506E-02
 -1       258-1.06100E-01-3.60706E-01-5.78298E-02 1.17205E-02 4.86349E-02 1.56108E-02
 -1       259-1.14976E-01-2.32434E-01-1.53435E-01 1.80251E-02 4.90267E-02 1.22272E-02
 -1       260-1.18482E-01-1.15643E-01-1.10447E-01 1.81788E-02-2.50033E-03 3.91281E-03
 -1       261-4.43385E-02 1.43218E-02 3.16439E-01 2.58539E-02-2.27657E-02 1.41145E-02
 -1       262-1.17534E-01 2.78966E-02 3.04520E-01-1.88766E-02 3.30092E-02-4.00769E-02
 -1       263-2.41353E-01-1.25059E-01-1.64531E-01-1.78651E-02 9.49529E-03-5.14086E-02
 -1       264-2.62361E-01-2.62390E-01-2.24597E-01-1.74958E-02-4.64762E-02-4.74623E-02
 -1       265-2.54996E-01-4.00404E-01-1.27691E-01-8.75856E-03-4.98987E-02-4.25669E-02
 -1       266-2.49104E-01-4.60457E-01-8.35356E-02 6.55621E-04-2.10098E-03-3.97407E-02
 -1       267-2.40785E-01-3.87752E-01-1.13193E-01 9.76700E-03 4.63658E-02-3.95950E-02
 -1       268-2.46020E-01-2.46080E-01-2.07926E-01 1.81374E-02 4.40279E-02-4.29837E-02
 -1       269-2.36460E-01-1.13740E-01-1.59721E-01 1.84378E-02-1.09733E-02-4.74058E-02
 -1       270-1.27134E-01 3.27554E-02 2.93320E-01 2.04494E-02-3.49153E-02-3.77115E-02
 -1       271-2.22705E-01 4.50793E-02 4.20076E-01-5.90301E-03 3.88211E-02-4.38483E-02
 -1       272-3.68689E-01-1.13165E-01-6.54082E-02-6.84447E-03 1.35614E-02-5.12220E-02
 -1       273-4.02632E-01-2.52656E-01-1.24781E-01-8.54812E-03-4.21789E-02-4.99701E-02
 -1       274-4.00452E-01-3.96506E-01-2.76635E-02-7.24411E-03-4.78155E-02-4.73603E-02
 -1       275-3.94925E-01-4.61168E-01 1.41205E-02-3.29975E-03-1.90547E-03-4.54345E-02
 -1       276-3.85108E-01-3.89015E-01-1.90772E-02 3.06861E-03 4.45904E-02-4.50097E-02
 -1       277-3.85358E-01-2.43059E-01-1.16006E-01 9.92823E-03 3.99768E-02-4.62640E-02
 -1       278-3.63252E-01-1.06492E-01-6.54761E-02 1.10446E-02-1.48787E-02-4.76585E-02
 -1       279-2.30948E-01 4.74109E-02 4.07894E-01 1.10049E-02-4.02600E-02-4.22627E-02
 -1       280-2.82431E-01 4.78422E-02 4.62771E-01 2.50022E-03 4.06694E-02-2.50077E-05
 -1       281-4.29055E-01-1.10816E-01-2.58739E-02 2.15612E-03 1.53488E-02-1.14206E-03
 -1       282-4.66296E-01-2.50488E-01-8.42611E-02 5.73297E-04-4.02059E-02-1.34065E-03
 -1       283-4.66575E-01-3.95959E-01 1.26726E-02-2.56518E-03-4.63825E-02-8.90597E-04
 -1       284-4.63811E-01-4.63798E-01 5.18535E-02-4.05977E-03-1.17729E-03-2.56985E-06
 -1       285-4.55759E-01-3.93822E-01 1.55490E-02-2.57724E-03 4.45093E-02 9.01692E-04
 -1       286-4.54411E-01-2.47653E-01-8.27477E-02 5.75092E-04 3.92279E-02 1.37183E-03
 -1       287-4.25541E-01-1.08881E-01-2.98509E-02 2.16862E-03-1.56322E-02 1.18621E-03
 -1       288-2.84794E-01 4.85476E-02 4.52269E-01 2.54504E-03-4.12689E-02 9.74650E-05
 -1       289-2.27766E-01 4.61165E-02 4.17657E-01 9.86503E-03 3.96072E-02 4.38845E-02
 -1       290-3.66645E-01-1.09650E-01-6.29799E-02 1.01671E-02 1.45797E-02 4.91044E-02
 -1       291-3.96710E-01-2.47589E-01-1.19412E-01 9.50448E-03-4.08807E-02 4.73484E-02
 -1       292-3.95425E-01-3.92518E-01-2.32653E-02 3.40387E-03-4.63232E-02 4.55921E-02
 -1       293-3.94886E-01-4.61168E-01 1.41013E-02-2.87472E-03-2.36345E-04 4.54378E-02
 -1       294-3.90072E-01-3.92991E-01-2.35358E-02-6.95480E-03 4.61309E-02 4.68460E-02
 -1       295-3.91293E-01-2.48122E-01-1.21465E-01-9.02327E-03 4.12553E-02 4.90033E-02
 -1       296-3.65361E-01-1.10000E-01-6.79619E-02-7.73354E-03-1.39085E-02 4.98700E-02
 -1       297-2.25831E-01 4.64501E-02 4.10419E-01-6.98341E-03-3.94747E-02 4.23553E-02
 -1       298-1.23601E-01 3.02583E-02 3.00923E-01 2.00891E-02 3.42530E-02 4.02827E-02
 -1       299-2.38999E-01-1.19003E-01-1.60311E-01 1.85160E-02 1.08713E-02 4.97014E-02
 -1       300-2.54912E-01-2.53627E-01-2.15126E-01 1.78021E-02-4.44451E-02 4.49401E-02
 -1       301-2.48740E-01-3.93557E-01-1.19909E-01 8.40941E-03-4.74261E-02 4.07676E-02
 -1       302-2.49062E-01-4.60363E-01-8.34976E-02-1.35143E-03 7.25223E-04 3.97140E-02
 -1       303-2.46969E-01-3.94453E-01-1.20957E-01-1.01236E-02 4.89313E-02 4.13577E-02
 -1       304-2.53484E-01-2.54769E-01-2.17509E-01-1.78849E-02 4.60049E-02 4.55030E-02
 -1       305-2.38882E-01-1.19745E-01-1.64077E-01-1.77811E-02-9.68941E-03 4.91698E-02
 -1       306-1.20919E-01 3.05288E-02 2.97019E-01-1.91963E-02-3.36879E-02 3.76751E-02
 -1       307-4.32417E-02 1.22007E-02 3.22879E-01 2.69875E-02 2.25009E-02-1.19613E-02
 -1       308-1.19849E-01-1.19742E-01-1.11837E-01 1.95461E-02 3.22066E-03-1.89525E-03
 -1       309-1.19388E-01-2.38669E-01-1.61631E-01 1.80371E-02-4.79779E-02-1.02106E-02
 -1       310-1.09955E-01-3.65773E-01-6.52040E-02 8.72976E-03-4.78206E-02-1.42812E-02
 -1       311-1.09849E-01-4.27309E-01-2.78315E-02-3.05207E-04 1.70591E-03-1.54924E-02
 -1       312-1.09696E-01-3.66227E-01-6.57029E-02-9.17883E-03 5.11418E-02-1.42122E-02
 -1       313-1.19361E-01-2.39211E-01-1.62742E-01-1.82608E-02 5.08902E-02-1.03541E-02
 -1       314-1.19998E-01-1.20105E-01-1.13551E-01-1.96369E-02-1.41065E-03-2.73596E-03
 -1       315-4.18248E-02 1.23958E-02 3.21762E-01-2.70743E-02-2.15420E-02-1.42695E-02
 -1       316 6.11377E-02 6.13621E-02 7.23769E-01 3.98689E-02 1.23054E-02-1.03139E-02
 -1       317 1.22686E-02-4.26450E-02 3.22260E-01 2.69376E-02 1.48827E-02-2.16992E-02
 -1       318 3.03661E-02-1.22481E-01 2.98659E-01 1.95656E-02-3.63016E-02-3.38411E-02
 -1       319 4.62270E-02-2.26967E-01 4.13774E-01 8.37021E-03-4.00582E-02-3.95066E-02
 -1       320 4.81798E-02-2.83652E-01 4.57578E-01-4.51070E-05 3.14916E-03-4.09730E-02
 -1       321 4.63397E-02-2.26652E-01 4.14363E-01-8.47817E-03 4.61406E-02-3.95763E-02
 -1       322 3.04205E-02-1.22042E-01 2.99316E-01-1.97202E-02 4.16358E-02-3.41012E-02
 -1       323 1.23293E-02-4.24208E-02 3.22396E-01-2.71237E-02-1.13567E-02-2.23438E-02
 -1       324 6.19289E-02 6.17037E-02 7.24459E-01-4.00935E-02-1.00896E-02-1.20762E-02
 -1       325 5.83354E-02 5.98137E-02 3.34501E-01-1.44732E-02 4.12452E-02 4.01289E-02
 -1       326 4.27382E-02 6.18040E-02 1.81139E-01-1.06092E-02 6.59878E-02 4.19338E-02
 -1       327 4.48612E-02 9.44769E-02 1.28881E-01-6.02781E-03 5.93102E-02 5.65183E-02
 -1       328 5.20377E-02 9.77313E-02 1.53836E-01 3.78927E-03 2.17942E-02 6.50921E-02
 -1       329 5.32929E-02 8.43692E-02 1.73151E-01 9.38760E-03-2.73981E-03 6.75602E-02
 -1       330 4.80930E-02 7.30404E-02 1.50386E-01 8.55413E-03-2.48320E-02 6.48287E-02
 -1       331 3.99550E-02 6.48804E-02 1.22585E-01 5.21565E-03-5.76318E-02 5.63405E-02
 -1       332 3.90989E-02 4.67426E-02 1.71147E-01 3.50368E-03-6.26394E-02 4.21529E-02
 -1       333 5.66580E-02 5.51508E-02 3.20908E-01 7.66391E-03-3.92000E-02 4.04227E-02
 -1       334 5.65856E-02 3.95810E-02 1.78467E-01-8.20596E-03 4.32040E-02 6.43313E-02
 -1       335 3.00255E-02 2.84228E-02 2.10990E-02-7.92938E-03 5.43178E-02 5.24442E-02
 -1       336 2.43272E-02 4.07947E-02-4.50873E-02-7.20011E-03 4.33557E-02 6.01059E-02
 -1       337 3.15779E-02 4.11557E-02-2.52041E-02-1.35633E-03 1.13426E-02 6.61154E-02
 -1       338 3.89200E-02 4.24683E-02-2.52420E-03 3.51034E-03-4.35672E-03 6.82809E-02
 -1       339 3.94115E-02 4.88725E-02-1.69445E-02 5.58048E-03-1.70433E-02 6.69560E-02
 -1       340 3.30049E-02 4.90267E-02-3.57534E-02 5.96541E-03-4.30828E-02 6.12235E-02
 -1       341 3.15113E-02 3.29961E-02 2.31143E-02 4.55824E-03-5.13445E-02 5.32164E-02
 -1       342 5.19582E-02 4.21873E-02 1.73664E-01 5.79451E-03-4.09046E-02 6.44352E-02
 -1       343 8.54606E-02 4.02030E-02 1.27746E-01-4.99335E-03 5.75920E-02 5.77921E-02
 -1       344 4.36960E-02 2.44210E-02-4.17245E-02-6.82239E-03 6.19355E-02 4.18250E-02
 -1       345 3.30571E-02 3.44259E-02-1.12359E-01-7.23133E-03 4.89535E-02 4.74362E-02
 -1       346 4.14393E-02 3.21872E-02-9.40151E-02-4.33844E-03 1.29567E-02 5.35355E-02
 -1       347 5.29410E-02 3.34375E-02-7.20288E-02-4.47016E-04-5.02759E-03 5.67530E-02
 -1       348 5.56950E-02 4.27761E-02-8.63990E-02 3.26817E-03-1.98792E-02 5.61337E-02
 -1       349 4.87511E-02 4.72924E-02-1.03442E-01 6.15611E-03-4.95750E-02 5.10324E-02
 -1       350 4.63489E-02 3.28449E-02-3.90620E-02 6.30160E-03-5.94394E-02 4.46153E-02
 -1       351 7.37164E-02 4.43961E-02 1.23458E-01 6.12294E-03-5.53269E-02 5.92916E-02
 -1       352 9.04280E-02 4.91331E-02 1.54661E-01-1.69032E-04 6.57636E-02 2.21289E-02
 -1       353 4.35366E-02 3.34493E-02-2.10426E-02-1.95121E-03 6.74400E-02 1.20449E-02
 -1       354 2.94537E-02 4.53953E-02-9.26378E-02-4.17123E-03 5.45758E-02 1.36563E-02
 -1       355 3.74359E-02 4.22321E-02-7.39535E-02-5.89081E-03 1.66507E-02 1.72964E-02
 -1       356 4.95993E-02 4.05248E-02-5.30245E-02-4.97310E-03-3.80618E-03 2.03100E-02
 -1       357 5.24523E-02 4.77260E-02-6.92792E-02-1.26638E-03-2.19323E-02 2.12378E-02
 -1       358 4.56965E-02 5.18378E-02-8.77269E-02 3.32822E-03-5.51664E-02 1.91416E-02
 -1       359 4.67820E-02 3.76050E-02-2.10039E-02 4.87496E-03-6.56771E-02 1.63468E-02
 -1       360 8.01651E-02 5.08664E-02 1.49334E-01 4.56425E-03-6.42031E-02 2.45934E-02
 -1       361 8.58913E-02 5.34437E-02 1.75551E-01 2.14959E-03 6.79512E-02-8.22582E-04
 -1       362 4.14707E-02 3.91542E-02-1.43501E-03 1.53960E-03 6.88958E-02-1.81165E-03
 -1       363 2.80450E-02 5.30486E-02-7.26135E-02-6.82419E-04 5.67847E-02-2.45252E-03
 -1       364 3.52945E-02 4.95825E-02-5.39428E-02-4.39411E-03 1.90693E-02-1.80316E-03
 -1       365 4.51754E-02 4.52330E-02-3.42235E-02-6.13829E-03-1.91141E-03-1.25390E-05
 -1       366 4.57462E-02 4.97498E-02-5.21318E-02-4.41842E-03-2.15943E-02 1.78341E-03
 -1       367 3.91171E-02 5.29517E-02-7.14075E-02-7.26448E-04-5.67885E-02 2.45284E-03
 -1       368 4.37951E-02 3.87973E-02-3.52948E-03 1.51070E-03-6.77043E-02 1.84054E-03
 -1       369 8.27815E-02 5.31498E-02 1.70588E-01 2.16672E-03-6.71940E-02 9.15413E-04
 -1       370 8.39937E-02 5.03817E-02 1.53714E-01 3.48207E-03 6.51329E-02-2.33370E-02
 -1       371 4.44200E-02 3.65659E-02-1.97754E-02 4.01703E-03 6.70030E-02-1.50388E-02
 -1       372 3.49268E-02 4.99864E-02-8.98987E-02 2.79178E-03 5.51852E-02-1.78279E-02
 -1       373 4.23556E-02 4.60220E-02-7.17355E-02-1.24712E-03 1.91623E-02-2.03911E-02
 -1       374 4.96346E-02 4.05635E-02-5.30393E-02-4.88095E-03-3.63285E-04-2.03370E-02
 -1       375 4.76445E-02 4.40140E-02-7.15363E-02-5.92033E-03-1.93942E-02-1.81759E-02
 -1       376 4.02932E-02 4.73104E-02-9.05196E-02-4.85455E-03-5.45436E-02-1.49603E-02
 -1       377 4.58566E-02 3.45262E-02-2.23153E-02-2.91711E-03-6.61120E-02-1.32960E-02
 -1       378 8.66227E-02 4.96809E-02 1.50339E-01-1.24718E-03-6.48352E-02-2.32094E-02
 -1       379 7.76833E-02 4.24822E-02 1.26399E-01 5.74282E-03 5.65821E-02-5.78684E-02
 -1       380 4.45480E-02 2.94670E-02-3.95037E-02 6.33987E-03 6.10904E-02-4.32172E-02
 -1       381 4.00539E-02 4.20496E-02-1.07447E-01 5.63162E-03 4.98348E-02-4.97048E-02
 -1       382 4.76800E-02 3.84548E-02-9.00435E-02 1.48948E-03 1.69819E-02-5.52926E-02
 -1       383 5.29841E-02 3.36109E-02-7.20047E-02-2.97729E-03 5.61079E-04-5.67922E-02
 -1       384 4.95840E-02 3.67824E-02-9.03697E-02-6.14408E-03-1.58035E-02-5.44475E-02
 -1       385 4.18290E-02 3.98485E-02-1.08422E-01-7.84783E-03-4.86627E-02-4.87989E-02
 -1       386 4.54513E-02 2.79218E-02-4.13498E-02-6.81640E-03-6.02739E-02-4.31963E-02
 -1       387 8.16079E-02 4.22706E-02 1.24911E-01-5.35189E-03-5.63314E-02-5.90803E-02
 -1       388 5.31934E-02 4.08545E-02 1.76068E-01 6.83874E-03 4.23072E-02-6.36399E-02
 -1       389 3.05038E-02 3.10370E-02 2.24683E-02 5.85908E-03 5.33756E-02-5.25429E-02
 -1       390 2.85084E-02 4.54273E-02-4.01859E-02 5.83810E-03 4.41432E-02-6.06367E-02
 -1       391 3.53280E-02 4.54794E-02-2.09498E-02 2.35657E-03 1.52997E-02-6.65990E-02
 -1       392 3.89604E-02 4.26364E-02-2.46905E-03-1.28852E-03 1.17817E-03-6.83055E-02
 -1       393 3.57503E-02 4.48137E-02-2.11216E-02-4.56649E-03-1.30452E-02-6.65234E-02
 -1       394 2.88737E-02 4.45757E-02-4.06602E-02-7.31405E-03-4.22715E-02-6.07316E-02
 -1       395 3.10090E-02 3.04774E-02 2.17076E-02-6.61027E-03-5.22822E-02-5.31156E-02
 -1       396 5.54381E-02 4.09901E-02 1.76179E-01-7.15961E-03-4.17938E-02-6.50430E-02
 -1       397 5.70380E-02 5.75606E-02 3.27406E-01 1.08586E-02 4.09380E-02-3.96838E-02
 -1       398 4.07847E-02 5.44868E-02 1.76162E-01 6.72992E-03 6.54995E-02-4.18011E-02
 -1       399 4.23140E-02 7.97741E-02 1.25523E-01 5.12704E-03 6.03745E-02-5.63326E-02
 -1       400 4.99652E-02 8.53643E-02 1.51894E-01 1.82080E-03 2.55956E-02-6.49427E-02
 -1       401 5.32762E-02 8.43115E-02 1.73099E-01-5.86737E-04 2.43112E-03-6.75741E-02
 -1       402 5.00933E-02 8.52528E-02 1.52193E-01-2.89638E-03-2.09961E-02-6.50274E-02
 -1       403 4.24378E-02 7.95250E-02 1.25803E-01-5.96427E-03-5.65920E-02-5.65820E-02
 -1       404 4.10609E-02 5.41497E-02 1.76093E-01-7.26754E-03-6.31900E-02-4.23002E-02
 -1       405 5.80645E-02 5.75431E-02 3.28164E-01-1.12254E-02-3.95583E-02-4.08093E-02
 -1       406 8.65376E-02 8.93862E-02 1.53252E-01 9.54274E-03 2.93539E-02 2.66505E-02
 -1       407 8.03649E-02 1.64637E-01 1.05641E-01 8.97940E-03 5.13330E-02 2.76403E-02
 -1       408 8.76468E-02 3.37579E-01 8.71172E-02 1.27433E-02 4.98870E-02 4.00564E-02
 -1       409 9.63450E-02 4.66919E-01 1.07164E-01 1.30679E-02 2.04480E-02 4.79173E-02
 -1       410 9.61289E-02 4.86438E-01 1.14993E-01 8.11828E-03-8.63104E-03 4.84716E-02
 -1       411 8.69587E-02 4.11713E-01 9.78888E-02-2.53993E-03-3.18629E-02 4.43247E-02
 -1       412 7.54130E-02 2.72278E-01 7.50759E-02-1.38687E-02-4.92912E-02 3.58656E-02
 -1       413 7.06210E-02 1.30583E-01 9.60391E-02-1.55459E-02-4.49449E-02 2.57593E-02
 -1       414 7.99975E-02 7.71292E-02 1.46531E-01-1.53254E-02-2.36372E-02 2.63489E-02
 -1       415 1.54277E-01 7.79443E-02 1.01730E-01 1.12332E-02 3.00713E-02 4.79823E-02
 -1       416 1.49366E-01 1.51876E-01 5.46510E-02 5.85633E-03 4.05161E-02 3.68975E-02
 -1       417 1.61193E-01 3.23206E-01 3.50635E-02 4.45620E-03 3.57770E-02 4.20330E-02
 -1       418 1.76060E-01 4.58513E-01 5.43363E-02 3.36576E-03 1.09627E-02 4.58268E-02
 -1       419 1.80586E-01 4.93821E-01 6.45989E-02 1.84930E-03-9.81335E-03 4.69446E-02
 -1       420 1.72147E-01 4.33129E-01 5.04849E-02-1.88593E-03-2.40504E-02 4.55753E-02
 -1       421 1.54201E-01 2.92708E-01 3.03501E-02-7.16035E-03-3.54372E-02 4.18587E-02
 -1       422 1.38767E-01 1.36184E-01 5.11113E-02-9.64149E-03-3.36098E-02 3.71150E-02
 -1       423 1.40843E-01 7.29560E-02 9.98428E-02-1.34107E-02-2.33727E-02 4.82596E-02
 -1       424 3.16380E-01 8.27865E-02 8.20336E-02 1.43347E-02 4.14489E-02 4.83719E-02
 -1       425 3.14786E-01 1.62948E-01 3.45651E-02 5.67523E-03 4.54217E-02 3.34798E-02
 -1       426 3.35490E-01 3.44422E-01 1.35298E-02 1.10911E-05 3.97199E-02 3.68173E-02
 -1       427 3.61466E-01 4.86266E-01 3.39000E-02-4.47384E-03 1.25813E-02 4.14052E-02
 -1       428 3.71014E-01 5.24988E-01 4.38841E-02-5.20573E-03-9.95986E-03 4.47827E-02
 -1       429 3.59780E-01 4.65827E-01 2.91268E-02-3.99937E-03-2.59851E-02 4.55107E-02
 -1       430 3.29803E-01 3.20861E-01 7.79120E-03-3.97795E-03-3.96824E-02 4.23854E-02
 -1       431 3.01084E-01 1.52294E-01 3.08092E-02-6.05102E-03-3.86069E-02 3.76081E-02
 -1       432 2.92989E-01 8.00018E-02 7.98989E-02-1.24647E-02-3.45029E-02 5.07930E-02
 -1       433 4.47579E-01 9.32937E-02 1.03632E-01 1.07437E-02 4.84572E-02 2.43377E-02
 -1       434 4.49125E-01 1.78939E-01 5.39434E-02 4.56202E-03 4.80953E-02 1.40116E-02
 -1       435 4.74519E-01 3.70645E-01 3.34356E-02-2.59559E-03 4.35430E-02 1.43626E-02
 -1       436 5.08852E-01 5.20020E-01 5.60656E-02-1.04806E-02 1.66852E-02 1.76784E-02
 -1       437 5.24747E-01 5.62361E-01 6.77928E-02-1.24001E-02-6.95157E-03 2.20406E-02
 -1       438 5.13784E-01 5.02838E-01 5.29382E-02-8.09818E-03-2.60121E-02 2.48767E-02
 -1       439 4.77436E-01 3.50590E-01 2.95428E-02-2.31744E-03-4.35347E-02 2.40902E-02
 -1       440 4.42389E-01 1.69143E-01 5.08283E-02-9.20122E-04-4.33809E-02 2.09911E-02
 -1       441 4.30471E-01 8.97825E-02 1.01175E-01-5.00415E-03-4.37699E-02 2.80850E-02
 -1       442 4.87210E-01 9.75629E-02 1.15689E-01 2.82455E-03 4.94020E-02-1.42756E-03
 -1       443 4.92516E-01 1.84352E-01 6.53677E-02 1.81953E-03 4.80887E-02-3.02484E-03
 -1       444 5.19876E-01 3.78075E-01 4.44052E-02-2.83695E-03 4.49615E-02-4.31194E-03
 -1       445 5.57631E-01 5.30923E-01 6.82452E-02-1.02338E-02 1.99818E-02-3.23643E-03
 -1       446 5.76547E-01 5.76692E-01 8.14120E-02-1.37156E-02-3.27397E-03-2.02764E-05
 -1       447 5.66792E-01 5.18735E-01 6.72974E-02-1.03149E-02-2.42201E-02 3.19899E-03
 -1       448 5.29964E-01 3.63864E-01 4.32909E-02-2.99233E-03-4.47070E-02 4.29653E-03
 -1       449 4.95029E-01 1.76698E-01 6.37912E-02 1.67796E-03-4.58183E-02 3.05174E-03
 -1       450 4.85216E-01 9.45722E-02 1.14132E-01 2.75243E-03-4.75052E-02 1.53228E-03
 -1       451 4.34903E-01 9.22507E-02 1.02586E-01-6.37507E-03 4.62296E-02-2.67622E-02
 -1       452 4.42087E-01 1.76231E-01 5.25537E-02-2.18308E-03 4.61151E-02-1.90872E-02
 -1       453 4.70413E-01 3.64440E-01 3.12358E-02-2.68803E-03 4.37762E-02-2.16647E-02
 -1       454 5.06881E-01 5.14722E-01 5.43036E-02-6.86691E-03 2.09658E-02-2.32127E-02
 -1       455 5.24720E-01 5.62312E-01 6.77684E-02-1.06530E-02-7.48696E-04-2.21049E-02
 -1       456 5.15756E-01 5.08049E-01 5.46629E-02-9.41355E-03-2.17155E-02-1.94746E-02
 -1       457 4.81539E-01 3.56740E-01 3.16996E-02-3.32693E-03-4.32520E-02-1.68541E-02
 -1       458 4.49383E-01 1.71850E-01 5.21892E-02 2.98377E-03-4.53156E-02-1.58647E-02
 -1       459 4.43191E-01 9.08845E-02 1.02272E-01 9.21454E-03-4.59689E-02-2.54626E-02
 -1       460 3.00186E-01 8.14466E-02 8.07982E-02-1.31528E-02 3.78924E-02-4.94557E-02
 -1       461 3.04618E-01 1.58395E-01 3.26195E-02-6.43957E-03 4.21431E-02-3.59113E-02
 -1       462 3.28796E-01 3.33986E-01 1.02662E-02-4.54615E-03 3.99899E-02-4.04004E-02
 -1       463 3.57676E-01 4.77230E-01 3.11468E-02-5.01549E-03 1.96528E-02-4.41846E-02
 -1       464 3.70908E-01 5.24972E-01 4.38459E-02-6.61601E-03 3.74421E-04-4.48429E-02
 -1       465 3.63429E-01 4.74786E-01 3.17936E-02-5.60504E-03-1.88637E-02-4.28525E-02
 -1       466 3.36412E-01 3.31255E-01 1.09865E-02-8.11946E-04-3.92667E-02-3.88603E-02
 -1       467 3.11213E-01 1.56925E-01 3.27528E-02 5.10759E-03-4.17680E-02-3.51453E-02
 -1       468 3.09347E-01 8.15059E-02 8.12583E-02 1.35599E-02-3.80044E-02-4.95780E-02
 -1       469 1.45236E-01 7.50832E-02 1.00395E-01-1.25748E-02 2.67892E-02-4.77723E-02
 -1       470 1.42381E-01 1.43841E-01 5.27381E-02-8.55047E-03 3.72776E-02-3.68920E-02
 -1       471 1.55988E-01 3.07826E-01 3.24124E-02-7.58732E-03 3.60522E-02-4.19925E-02
 -1       472 1.72814E-01 4.45800E-01 5.21456E-02-5.40801E-03 1.81714E-02-4.57963E-02
 -1       473 1.80486E-01 4.93753E-01 6.45712E-02-3.25292E-03 7.49051E-04-4.69610E-02
 -1       474 1.75228E-01 4.45661E-01 5.26018E-02-1.86327E-04-1.67840E-02-4.56414E-02
 -1       475 1.59315E-01 3.07997E-01 3.29600E-02 3.97597E-03-3.50050E-02-4.19222E-02
 -1       476 1.45724E-01 1.44264E-01 5.30307E-02 6.90998E-03-3.67336E-02-3.71200E-02
 -1       477 1.49998E-01 7.59019E-02 1.01271E-01 1.20305E-02-2.66113E-02-4.84170E-02
 -1       478 8.22925E-02 8.29959E-02 1.49526E-01-1.27464E-02 2.69140E-02-2.61814E-02
 -1       479 7.47685E-02 1.47329E-01 1.00723E-01-1.29379E-02 4.88236E-02-2.65294E-02
 -1       480 8.08055E-02 3.04428E-01 8.07892E-02-1.45579E-02 5.07768E-02-3.78374E-02
 -1       481 9.10787E-02 4.38840E-01 1.02243E-01-9.46958E-03 2.77236E-02-4.60485E-02
 -1       482 9.60326E-02 4.86154E-01 1.14906E-01-1.83155E-03 1.70715E-03-4.84553E-02
 -1       483 9.20375E-02 4.39213E-01 1.02624E-01 6.16819E-03-2.45364E-02-4.61515E-02
 -1       484 8.21395E-02 3.05097E-01 8.12703E-02 1.21699E-02-4.82715E-02-3.80608E-02
 -1       485 7.62180E-02 1.47905E-01 1.00947E-01 1.16704E-02-4.73701E-02-2.68714E-02
 -1       486 8.43541E-02 8.36502E-02 1.50375E-01 1.21554E-02-2.60539E-02-2.67845E-02
 -3
 9999
